[TITLE]
Nominal HANOI network

[JUNCTIONS]
;ID              	Elev        	Demand      	Pattern         
 2               	30          	247.22      	Pat1                ;
 3               	30          	236.11      	Pat1              	;
 4               	30          	36.11       	Pat1                	;
 5               	30          	201.39      	Pat1                	;
 6               	30          	279.17      	Pat1                	;
 7               	30          	375         	Pat1                	;
 8               	30          	152.78      	 Pat1               	;
 9               	30          	145.83      	  Pat1              	;
 10              	30          	145.83      	  Pat1              	;
 11              	30          	138.89      	 Pat1               	;
 12              	30          	155.56      	Pat1                	;
 13              	30          	261.11      	Pat1                	;
 14              	30          	170.83      	 Pat1               	;
 15              	30          	77.78       	 Pat1               	;
 16              	30          	86.11       	 Pat1               	;
 17              	30          	240.28      	 Pat1               	;
 18              	30          	373.61      	 Pat1               	;
 19              	30          	16.67       	 Pat1               	;
 20              	30          	354.17      	 Pat1               	;
 21              	30          	258.33      	 Pat1               	;
 22              	30          	134.72      	 Pat1               	;
 23              	30          	290.28      	  Pat1              	;
 24              	30          	227.78      	 Pat1               	;
 25              	30          	47.22       	 Pat1               	;
 26              	30          	250         	 Pat1               	;
 27              	30          	102.78      	 Pat1               	;
 28              	30          	80.56       	 Pat1               	;
 29              	30          	100         	 Pat1               	;
 30              	30          	100         	 Pat1               	;
 31              	30          	29.17       	 Pat1               	;
 32              	30          	223.61      	 Pat1               	;

[RESERVOIRS]
;ID              	Head        	Pattern         
 1               	100         	                	;

[TANKS]
;ID              	Elevation   	InitLevel   	MinLevel    	MaxLevel    	Diameter    	MinVol      	VolCurve

[PIPES]
;ID              	Node1           	Node2           	Length      	Diameter    	Roughness   	MinorLoss   	Status
 1               	1               	2               	100         	1016        	130         	0           	Open  	;
 2               	2               	3               	1350        	1016        	130         	0           	Open  	;
 3               	3               	4               	900         	1016        	130         	0           	Open  	;
 4               	4               	5               	1150        	1016        	130         	0           	Open  	;
 5               	5               	6               	1450        	1016        	130         	0           	Open  	;
 6               	6               	7               	450         	1016        	130         	0           	Open  	;
 7               	7               	8               	850         	1016        	130         	0           	Open  	;
 8               	8               	9               	850         	1016        	130         	0           	Open  	;
 9               	9               	10              	800         	1016        	130         	0           	Open  	;
 10              	10              	11              	950         	762         	130         	0           	Open  	;
 11              	11              	12              	1200        	762         	130         	0           	Open  	;
 12              	12              	13              	3500        	609.6       	130         	0           	Open  	;
 13              	10              	14              	800         	406.4       	130         	0           	Open  	;
 14              	14              	15              	500         	406.4       	130         	0           	Open  	;
 15              	15              	16              	550         	304.8       	130         	0           	Open  	;
 16              	17              	16              	2730        	406.4       	130         	0           	Open  	;
 17              	17              	18              	1750        	508         	130         	0           	Open  	;
 18              	18              	19              	800         	609.6       	130         	0           	Open  	;
 19              	19              	3               	400         	609.6       	130         	0           	Open  	;
 20              	3               	20              	2200        	1016        	130         	0           	Open  	;
 21              	20              	21              	1500        	508         	130         	0           	Open  	;
 22              	21              	22              	500         	304.8       	130         	0           	Open  	;
 23              	20              	23              	2650        	1016        	130         	0           	Open  	;
 24              	23              	24              	1230        	762         	130         	0           	Open  	;
 25              	24              	25              	1300        	762         	130         	0           	Open  	;
 26              	26              	25              	850         	508         	130         	0           	Open  	;
 27              	27              	26              	300         	304.8       	130         	0           	Open  	;
 28              	16              	27              	750         	304.8       	130         	0           	Open  	;
 29              	23              	28              	1500        	406.4       	130         	0           	Open  	;
 30              	28              	29              	2000        	406.4       	130         	0           	Open  	;
 31              	29              	30              	1600        	304.8       	130         	0           	Open  	;
 32              	30              	31              	150         	304.8       	130         	0           	Open  	;
 33              	32              	31              	860         	406.4       	130         	0           	Open  	;
 34              	25              	32              	950         	508         	130         	0           	Open  	;

[PUMPS]
;ID              	Node1           	Node2           	Parameters

[VALVES]
;ID              	Node1           	Node2           	Diameter    	Type	Setting     	MinorLoss   

[TAGS]

[DEMANDS]
;Junction        	Demand      	Pattern         	Category

[STATUS]
;ID              	Status/Setting

[PATTERNS]
;ID              	Multipliers
Pat1 0.569011176989769	0.469844007647689	0.382654318997613	0.312616083297516	0.264096915209202	0.240412550530080	0.243648919429250	0.274554974544888	0.332505513968736	0.415530695356131	0.520407619941298	0.642808889764951	0.777502885875388	0.918600137042253	1.05983910260435	1.19490273136213	1.31775429362662	1.42297750651717	1.50610241947457	1.56389560005202	1.59459161424739	1.59804330729159	1.57577142949672	1.53089987549312	1.46797099644576	1.39264549964301	1.31130242410598	1.23056539033648	1.15679048433588	1.09555753469423	1.05120919423084	1.02648053955614	1.02225572785402	1.03747799817031	1.06922587299515	1.11295311571721	1.16287440986908	1.21246451264064	1.25502735244668	1.28428444407640	1.29492988830996	1.28310235701566	1.24673250644302	1.18573633238588	1.10203976349097	0.999435685096284	0.883289908178867	0.760125768722118	0.637126776084457	0.521602171802936	0.420461076846903	0.339737294249754	0.284199478577250	0.257071343435307	0.259875138197569	0.292400123731803	0.352787436266523	0.437714509958254	0.542656731507908	0.662201415882966	0.790389317972130	0.921061201387425	1.04819072664079	1.16618926830528	1.27017245162068	1.35618161583407	1.42135572712571	1.46405043878137	1.48390127424457	1.48182775419946	1.45997528610369	1.42159236589104	1.37084256429072	1.31255411291565	1.25191460015741	1.19412395082933	1.14402483214178	1.10573504070224	1.08231034544843	1.07546782459087	1.08539829031488	1.11069163016617	1.14839091459240	1.19418047672330	1.24270082244084	1.28797044771561	1.32388286427672	1.34473779174969	1.34575979658970	1.32355651341844	1.27647234816514	1.20480204805993	1.11084098270210	0.998764175472318	0.874342465110960	0.744519904794890	0.616889903136807	0.499117209494691	0.398357603593359	0.320726579824245	0.270862545316197	0.251619797909946	0.263913037553679	0.306719962174869	0.377233328189712	0.471140377126366	0.582997142287313	0.706658826643082	0.835725628335513	0.963965961465125	1.08568533038735	1.19601810086426	1.29112974735825	1.36832744736745	1.42608586485909	1.46400162537323	1.48269375193956	1.48366808626879	1.46916180284172	1.44198025456753	1.40533353948673	1.36267540915319	1.31754342752261	1.27339737055782	1.23345310957658	1.20051160516303	1.17678669903967	1.16374033093249	1.16193861035520	1.17094576795872	1.18927444617518	1.21440939549833	1.24291715977575	1.27064697592853	1.29301856997653	1.30538189471051	1.30342348622136	1.28358546727487	1.24345763385398	1.18210155940245	1.10026880493102	1.00048312789732	0.886968434913687	0.765418969804771	0.642624292198556	0.525977167104913	0.422905721365201	0.340280511964673	0.283851301193328	0.257766734165577	0.264222824546709	0.303273906718496	0.372823830305535	0.468797412991076	0.585474507920212	0.715953440896594	0.852698730316176	0.988121157297059	1.11513703571950	1.22765789929895	1.32097107868963	1.39198453712219	1.43932423733362	1.46328742760943	1.46566882651846	1.44948730019665	1.41864726150834	1.37757123633225	1.33083798792124	1.28285495445032	1.23758564341152	1.19834338774428	1.16765389119402	1.14718150326946	1.13770906636949	1.13915892206401	1.15064321001442	1.17053443665058	1.19655155968406	1.22586144268967	1.25519936472879	1.28101436386704	1.29964491128387	1.30752754952108	1.30143596059501	1.27874118704047	1.23767649506568	1.17758392299496	1.09911518016087	1.00435832960238	0.896864297181483	0.781553878737090	0.664496165025089	0.552562209537597	0.452971903168633	0.372765676435668	0.318244035670954	0.294425431057317	0.304575320976132	0.349855884199707	0.429136673930995	0.538992356584039	0.673895933947419	0.826596406455782	0.988650868258239	1.15106471331759	1.30498189842435	1.44236147439509	1.55657759635749	1.64288790899800	1.69872873795274	1.72381338001311	1.72002994300893	1.69115535369331	1.64242006275683	1.57997166150852	1.51029364989761	1.43963722686111	1.37351925654080	1.31632929935507	1.27107422595847	1.23927233802962	1.22099217936346	1.21501633594858	1.21909916981285	1.23028075376899	1.24521776006509	1.26049549681872	1.27289283358903	1.27958206341235	1.27825716901121	1.26719479392973	1.24526094518021	1.21188194244007	1.16699978729038	1.11102996764548	1.04483433683701	0.969714195976003	0.887420455422279	0.800170245763185	0.710653949038459	0.622014347840924	0.537780969823241	0.461747685773273	0.397789569988402	0.349624827930413	0.320537778588064	0.313087862194916	0.328835947601762	0.368121682516331	0.429923611860498	0.511827245524156	0.610115786362031	0.719985007189046	0.835869396825961	0.951853007500853	1.06212723653133	1.16145060659304	1.24556353484758	1.31151453421148	1.35786300062495	1.38473675909441	1.39373835244514	1.38771076654206	1.37038886427030	1.34597534264885	1.31868799918772	1.29232753141339	1.26991172911784	1.25341321364051	1.24362496210198	1.24016237670070	1.24159457373772	1.24568287704952	1.24969299881020	1.25074042964161	1.24612688154830	1.23362927477465	1.21171108351000	1.17963760979544	1.13749027391982	1.08608843596601	1.02683880117405	0.961540617710789	0.892178654706781	0.820734982618493	0.749045165144545	0.678715525468312	0.611107063356649	0.547380048216123	0.488583015195621	0.435762368220840	0.390065157048778	0.352808391892169	0.325493394765357	0.309752439079690	0.307226047352616	0.319381195011873	0.347291567291341	0.391409306340450	0.451362074149863	0.525808971011862	0.612383749382551	0.707744370401890	0.807735385301835	0.907655463051354	1.00260845644756	1.08790454001273	1.15946977097758	1.21421908006261	1.25034975071947	1.26751977345538	1.26688727636956	1.25100217291577	1.22355747124270	1.18902341551900	1.15220090269879	1.11773986144431	1.08967240948874	1.07100915998832	1.06344023624180	1.06717122275408	1.08090979429299	1.10200283073834	1.12670827712919	1.15057257758007	1.16887462321284	1.17709176342940	1.17134292653264	1.14876808235905	1.10781142472951	1.04838660818368	0.971914744525066	0.881238191329966	0.780424111667251	0.674480298446589

[CURVES]
;ID              	X-Value     	Y-Value

[CONTROLS]




[RULES]




[ENERGY]
 Global Efficiency  	75
 Global Price       	0
 Demand Charge      	0

[EMITTERS]
;Junction        	Coefficient

[QUALITY]
;Node            	InitQual

[SOURCES]
;Node            	Type        	Quality     	Pattern

[REACTIONS]
;Type     	Pipe/Tank       	Coefficient


[REACTIONS]
 Order Bulk            	1
 Order Tank            	1
 Order Wall            	1
 Global Bulk           	0
 Global Wall           	0
 Limiting Potential    	0
 Roughness Correlation 	0

[MIXING]
;Tank            	Model

[TIMES]
 Duration           	168:00 
 Hydraulic Timestep 	0:30 
 Quality Timestep   	0:05 
 Pattern Timestep   	0:30 
 Pattern Start      	0:00 
 Report Timestep    	0:30 
 Report Start       	0:00 
 Start ClockTime    	00:00:00
 Statistic          	NONE

[REPORT]
 Status             	No
 Summary            	No
 Page               	0

[OPTIONS]
 Units              	CMH
 Headloss           	H-W
 Specific Gravity   	1
 Viscosity          	1
 Trials             	40
 Accuracy           	0.000001
 CHECKFREQ          	2
 MAXCHECK           	10
 DAMPLIMIT          	0
 Unbalanced         	Continue 10
 Pattern            	1
 Demand Multiplier  	1.0
 Emitter Exponent   	0.5
 Quality            	None mg/L
 Diffusivity        	1
 Tolerance          	0.01

[COORDINATES]
;Node            	X-Coord         	Y-Coord
 2               	5251.17         	5268.69         
 3               	5227.80         	5969.63         
 4               	6068.93         	5969.63         
 5               	6676.40         	5969.63         
 6               	7260.51         	5969.63         
 7               	7260.51         	6600.47         
 8               	7260.51         	7301.40         
 9               	7260.51         	7990.65         
 10              	6793.22         	7990.65         
 11              	6793.22         	8551.40         
 12              	6793.22         	8960.28         
 13              	6150.70         	8960.28         
 14              	6302.57         	7990.65         
 15              	5683.41         	7990.65         
 16              	5216.12         	7990.65         
 17              	5216.12         	7535.05         
 18              	5227.80         	7137.85         
 19              	5227.80         	6542.06         
 20              	4550.23         	5969.63         
 21              	4550.23         	5303.74         
 22              	4550.23         	4591.12         
 23              	3977.80         	5969.63         
 24              	3977.80         	7172.90         
 25              	3954.44         	7990.65         
 26              	4410.05         	7990.65         
 27              	4818.93         	7990.65         
 28              	3405.37         	5969.63         
 29              	2716.12         	6004.67         
 30              	2716.12         	6904.21         
 31              	2716.12         	7990.65         
 32              	3405.37         	7990.65         
 1               	5251.17         	4485.98         

[VERTICES]
;Link            	X-Coord         	Y-Coord

[LABELS]
;X-Coord           Y-Coord          Label & Anchor Node

[BACKDROP]
 DIMENSIONS     	0.00            	0.00            	10000.00        	10000.00        
 UNITS          	None
 FILE           	
 OFFSET         	0.00            	0.00            

[END]
