; Filename: networks/Hanoi_CMH.inp
; WNTR: 0.1.3
; Created: 2019-07-15 18:38:39
[TITLE]

[JUNCTIONS]
;ID                      Elevation       Demand Pattern                 
 10                             30 133.944505083 P_10                       ;
 11                             30 151.385642112 P_11                       ;
 12                             30 152.926891492 P_12                       ;
 13                             30 238.677814644 P_13                       ;
 14                             30 167.67063355 P_14                       ;
 15                             30 81.1841303829 P_15                       ;
 16                             30 78.8350933117 P_16                       ;
 17                             30 244.165919589 P_17                       ;
 18                             30 349.16381886 P_18                       ;
 19                             30 17.1596805206 P_19                       ;
 2                              30  231.5977912 P_2                        ;
 20                             30 362.110741788 P_20                       ;
 21                             30 242.493808024 P_21                       ;
 22                             30 131.07042938 P_22                       ;
 23                             30 275.983608268 P_23                       ;
 24                             30 241.36839488 P_24                       ;
 25                             30 47.8805785698 P_25                       ;
 26                             30 261.52568697 P_26                       ;
 27                             30 92.7255529949 P_27                       ;
 28                             30 74.6769475171 P_28                       ;
 29                             30 100.779019866 P_29                       ;
 3                              30 215.430400774 P_3                        ;
 30                             30 102.943659046 P_30                       ;
 31                             30 30.5068213068 P_31                       ;
 32                             30 221.439921856 P_32                       ;
 4                              30 33.5110230559 P_4                        ;
 5                              30 212.063721863 P_5                        ;
 6                              30 266.311136924 P_6                        ;
 7                              30 408.103150885 P_7                        ;
 8                              30 153.785697342 P_8                        ;
 9                              30 137.54167014 P_9                        ;

[RESERVOIRS]
;ID                           Head                  Pattern
 1                             100                            ;

[TANKS]
;ID                      Elevation   Init Level    Min Level    Max Level     Diameter   Min Volume Volume Curve        

[PIPES]
;ID                   Node1                Node2                      Length     Diameter    Roughness   Minor Loss               Status
 1                    1                    2                    106.739317623 849.434456376 143.464879481            0                 Open   ;
 10                   10                   11                   931.222394779 726.495651869 138.270035898            0                 Open   ;
 11                   11                   12                   1114.22636937 691.203992129 148.370883523            0                 Open   ;
 12                   12                   13                   3172.00100972 548.460604091 133.845921259            0                 Open   ;
 13                   10                   14                   826.124301946 432.773285342 126.55671242            0                 Open   ;
 14                   14                   15                   525.649046471 462.121267243 146.757642097            0                 Open   ;
 15                   15                   16                   526.577590473 357.661381698 131.32505591            0                 Open   ;
 16                   17                   16                   2552.45381264 369.291104294 149.498073304            0                 Open   ;
 17                   17                   18                   1671.5199152 535.739021812 144.965750829            0                 Open   ;
 18                   18                   19                   875.157452951 665.731747978 137.209102123            0                 Open   ;
 19                   19                   3                    373.180812886 596.219376095 119.982321017            0                 Open   ;
 2                    2                    3                    1390.02848835 994.122559872 130.504762269            0                 Open   ;
 20                   3                    20                   2119.44457672 1211.00194661 133.051573889            0                 Open   ;
 21                   20                   21                   1634.14691726 571.042342939 138.668624528            0                 Open   ;
 22                   21                   22                   495.198763978 312.762661418 146.644150894            0                 Open   ;
 23                   20                   23                   2794.89614179 1171.90979352 125.904282695            0                 Open   ;
 24                   23                   24                   1128.4864714 747.363935216 120.731302982            0                 Open   ;
 25                   24                   25                   1177.13673034 877.661387152 127.267159917            0                 Open   ;
 26                   26                   25                   878.338619637 480.25255662 110.976116572            0                 Open   ;
 27                   27                   26                   271.21834961 351.905232578 148.680147653            0                 Open   ;
 28                   16                   27                   786.407750062 311.915436127 147.906167632            0                 Open   ;
 29                   23                   28                   1400.82141187 367.76742838 134.318240539            0                 Open   ;
 3                    3                    4                    936.550271627 1067.96284923 122.241990475            0                 Open   ;
 30                   28                   29                   1936.78385623 347.79951803 128.280269384            0                 Open   ;
 31                   29                   30                   1498.88684682 311.899339969 115.351249687            0                 Open   ;
 32                   30                   31                   161.865703829 274.861609054 143.491178792            0                 Open   ;
 33                   32                   31                   921.043383178 379.647670481 126.245803492            0                 Open   ;
 34                   25                   32                   871.500569645 601.44609028 121.496940717            0                 Open   ;
 4                    4                    5                    1249.83964646 954.256974798 114.35720964            0                 Open   ;
 5                    5                    6                    1594.48682079 1171.82900903 124.06615133            0                 Open   ;
 6                    6                    7                    413.010429304 867.408344647 127.35273564            0                 Open   ;
 7                    7                    8                    816.392084075 1090.00660909 127.364637157            0                 Open   ;
 8                    8                    9                    805.888730819 1148.31075689 131.55959967            0                 Open   ;
 9                    9                    10                   823.673623754 1197.87226055 111.810525974            0                 Open   ;

[PUMPS]
;ID                   Node1                Node2                Properties          

[VALVES]
;ID                   Node1                Node2                    Diameter Type      Setting   Minor Loss

[EMITTERS]
;ID        Flow coefficient

[CURVES]
;ID         X-Value      Y-Value     

[PATTERNS]
;ID        Multipliers

P_29 0.655273 0.604725 0.605258 0.490041 0.501377 0.488196 0.474594 0.480204
P_29 0.516784 0.572347 0.641100 0.707885 0.779119 0.952586 0.911734 0.992726
P_29 1.129067 1.149103 1.217095 1.300586 1.213451 1.225243 1.275947 1.293231
P_29 1.106835 1.229505 1.065533 1.123985 1.053419 1.009863 1.043140 0.933293
P_29 0.939735 0.984139 1.039733 1.065175 1.087867 1.133048 1.227015 1.151800
P_29 1.129052 1.188168 1.200581 1.138476 1.073223 1.010580 0.936851 0.912697
P_29 0.785758 0.837822 0.699184 0.586810 0.662091 0.580550 0.621546 0.612036
P_29 0.649088 0.683347 0.754122 0.831143 0.903940 1.005086 1.091008 1.088348
P_29 1.208725 1.251113 1.324759 1.432989 1.315670 1.368967 1.196620 1.332095
P_29 1.257554 1.385211 1.088389 1.193680 1.237347 1.137385 1.126049 1.070048
P_29 1.082830 1.118482 1.156496 1.190545 1.172011 1.227015 1.228577 1.225992
P_29 1.237091 1.280698 1.169582 1.183185 1.035992 1.023849 0.942851 0.889633
P_29 0.787424 0.701689 0.652846 0.585995 0.609987 0.591387 0.559116 0.627767
P_29 0.553986 0.670045 0.816564 0.759939 0.900376 0.963487 0.997642 1.112302
P_29 1.175347 1.211447 1.175773 1.273515 1.339595 1.234617 1.198881 1.375389
P_29 1.227742 1.320255 1.241412 1.165135 1.179398 1.039123 1.189008 1.036718
P_29 1.175739 1.175029 1.057303 1.041077 1.121967 1.157558 1.121978 1.072701
P_29 1.056355 1.142871 1.190954 1.247366 1.092064 1.062020 0.859946 0.878121
P_29 0.759865 0.768141 0.716965 0.727114 0.571478 0.568674 0.618323 0.583161
P_29 0.655667 0.766775 0.789717 0.918902 0.902613 0.978158 1.120936 1.314741
P_29 1.276520 1.452742 1.394677 1.412505 1.342104 1.397739 1.417357 1.456342
P_29 1.334543 1.358586 1.272381 1.402625 1.348859 1.292690 1.216663 1.222465
P_29 1.339426 1.330077 1.262273 1.295363 1.369099 1.363444 1.389603 1.345020
P_29 1.284687 1.244293 1.230369 1.251229 1.308956 1.217568 1.112251 1.071356
P_29 0.956630 0.836067 0.792373 0.687598 0.706988 0.644914 0.716605 0.731171
P_29 0.712702 0.812691 0.942195 1.100834 1.014546 1.297091 1.515256 1.388573
P_29 1.337075 1.667156 1.610206 1.629658 1.408178 1.465256 1.523931 1.510990
P_29 1.523262 1.351082 1.339281 1.263423 1.261514 1.322831 1.115737 1.280170
P_29 1.152991 1.281702 1.158026 1.187638 1.183324 1.138099 1.170966 1.168714
P_29 1.191732 1.136464 1.069402 1.096835 1.000741 1.004678 0.882096 0.854043
P_29 0.814704 0.812956 0.767585 0.657616 0.566849 0.605257 0.578067 0.558841
P_29 0.596701 0.593417 0.690242 0.695817 0.697340 0.847259 0.837266 0.844082
P_29 0.965611 1.016823 1.038115 1.003708 1.072797 1.135914 1.066750 1.151928
P_29 1.067448 1.151530 1.036365 1.079088 1.041662 0.986315 0.986230 1.017387
P_29 1.094622 1.057685 0.992283 1.072792 1.074346 1.063770 1.095726 1.011281
P_29 0.925215 0.933931 0.855016 0.839208 0.785917 0.813218 0.725284 0.686511
P_29 0.624732 0.695766 0.572944 0.590810 0.574424 0.516208 0.494027 0.453848
P_29 0.496169 0.546820 0.496917 0.503596 0.590909 0.631366 0.622105 0.719560
P_29 0.789346 0.714730 0.915545 0.918048 0.900306 0.989725 1.003575 1.066183
P_29 1.116177 0.916970 0.975186 0.998903 0.964389 0.906054 0.845947 0.904350
P_29 0.928719 0.890049 0.907206 0.944062 0.922682 1.004646 0.947062 0.976871
P_29 0.925244 0.980502 0.923818 0.817520 0.959856 0.810043 0.698397 0.738366

P_28 0.644333 0.610001 0.520285 0.443333 0.432067 0.465884 0.415003 0.443172
P_28 0.489278 0.513141 0.587862 0.662561 0.774489 0.813802 0.959834 1.038770
P_28 1.158569 1.321186 1.204325 1.194896 1.306457 1.417561 1.355983 1.309440
P_28 1.228878 1.252375 1.222537 1.118668 1.028632 0.965775 0.963680 0.986001
P_28 1.025997 0.950005 0.948310 1.007312 1.071508 1.165269 1.093754 1.238124
P_28 1.178227 1.173191 1.219971 1.129019 1.091612 1.012983 0.858362 0.942225
P_28 0.766234 0.648255 0.625632 0.529967 0.482352 0.487799 0.502504 0.544151
P_28 0.502029 0.687967 0.731753 0.827854 0.837989 0.863142 1.079674 1.251363
P_28 1.296936 1.345667 1.356905 1.371766 1.383413 1.470642 1.482192 1.378671
P_28 1.157231 1.263415 1.187350 1.379151 1.103330 1.140451 1.036594 1.126270
P_28 1.057187 1.121166 1.073561 1.187595 1.185636 1.238640 1.238513 1.120178
P_28 1.190403 1.221050 1.178191 1.161858 1.084208 0.987604 0.936996 0.805254
P_28 0.637144 0.616248 0.587707 0.559991 0.508771 0.478338 0.451558 0.482582
P_28 0.629573 0.604343 0.729848 0.801584 0.911494 0.957572 1.090455 1.041578
P_28 1.224332 1.112489 1.484518 1.376689 1.201170 1.353595 1.318665 1.329615
P_28 1.521503 1.319661 1.299203 1.244019 1.169502 1.222965 1.084918 1.127728
P_28 1.237469 1.146533 1.120799 1.048350 1.245181 1.317641 1.225689 1.218575
P_28 1.278125 1.177783 1.223067 1.150226 1.066481 0.963172 0.995045 0.877709
P_28 0.811103 0.657921 0.614436 0.589294 0.488309 0.566940 0.530642 0.577147
P_28 0.590731 0.646072 0.769925 0.895039 0.963821 1.090104 1.244013 1.287509
P_28 1.304722 1.344923 1.447439 1.518274 1.637278 1.451065 1.453735 1.391098
P_28 1.398222 1.385484 1.364675 1.339246 1.234965 1.330289 1.249054 1.316747
P_28 1.185709 1.271040 1.257136 1.358369 1.376773 1.449843 1.346487 1.382953
P_28 1.376015 1.356273 1.371496 1.325799 1.157373 1.151558 1.035119 1.007886
P_28 0.909427 0.811233 0.727736 0.647300 0.579767 0.569971 0.591273 0.596197
P_28 0.719936 0.771037 0.805743 1.030419 1.068930 1.253241 1.380976 1.408949
P_28 1.534982 1.711400 1.705560 1.745358 1.664480 1.720648 1.560052 1.434453
P_28 1.574506 1.233797 1.383379 1.262767 1.277547 1.271578 1.112658 1.199058
P_28 1.207372 1.220310 1.148449 1.226324 1.270625 1.188228 1.172211 1.120138
P_28 1.125287 1.100732 1.192711 1.102684 0.988395 1.030329 0.925557 0.763476
P_28 0.781317 0.739951 0.636969 0.621766 0.529404 0.552096 0.484453 0.491282
P_28 0.482153 0.516528 0.590178 0.586494 0.666440 0.753185 0.855770 0.875532
P_28 1.089261 1.003146 1.136425 1.102797 1.129158 1.072712 1.124575 1.163584
P_28 1.213322 1.103474 1.139743 1.209633 0.990558 0.956465 1.061701 1.052019
P_28 1.001884 1.046089 1.019587 1.057622 1.075471 1.001137 1.000310 1.019231
P_28 0.972346 0.948003 0.865220 0.827574 0.759993 0.764789 0.679726 0.742436
P_28 0.671761 0.574824 0.605265 0.529313 0.480422 0.486761 0.473247 0.468278
P_28 0.415128 0.493134 0.469425 0.504355 0.502327 0.622521 0.657876 0.711879
P_28 0.755289 0.780912 0.818634 0.943908 1.035668 0.900074 1.008995 1.029544
P_28 1.127124 1.036666 1.020609 1.046577 0.885754 0.933601 0.942578 0.954530
P_28 0.888693 0.916318 0.991629 0.843320 0.922915 0.898027 0.978783 1.047313
P_28 1.054603 0.932712 0.943146 0.848279 0.818207 0.839509 0.761480 0.677851

P_21 0.577513 0.507594 0.404722 0.388917 0.331368 0.280292 0.300879 0.340045
P_21 0.378030 0.421303 0.514986 0.643120 0.710473 0.920613 0.984085 1.179349
P_21 1.129851 1.219256 1.311485 1.322697 1.377094 1.377877 1.366661 1.269895
P_21 1.386327 1.166852 1.198378 1.124947 1.014586 1.024216 1.042440 0.963147
P_21 1.035443 0.947280 1.029131 1.028231 1.162624 1.214967 1.203863 1.189254
P_21 1.255202 1.322565 1.279215 1.158580 1.071333 0.981354 0.869036 0.880216
P_21 0.748496 0.564226 0.499681 0.450936 0.387241 0.368760 0.405626 0.395233
P_21 0.433270 0.574522 0.624011 0.787827 0.903094 1.066781 1.028994 1.216500
P_21 1.340819 1.214099 1.376208 1.417703 1.603268 1.385213 1.410535 1.421242
P_21 1.448837 1.315139 1.148217 1.215623 1.140172 0.988353 1.109052 1.150747
P_21 1.132530 1.137737 1.091803 1.264085 1.248021 1.350387 1.194047 1.454435
P_21 1.315224 1.368844 1.226532 1.237782 1.077400 1.007080 0.909090 0.888913
P_21 0.679814 0.641965 0.517840 0.427566 0.361015 0.369962 0.379260 0.414859
P_21 0.475433 0.512426 0.666049 0.747418 0.883067 0.997759 1.022610 1.140736
P_21 1.233204 1.289477 1.454317 1.386965 1.419865 1.317931 1.376914 1.499766
P_21 1.328023 1.321883 1.240926 1.246419 1.222815 1.206077 1.159125 1.111371
P_21 1.155625 1.124893 1.324040 1.021780 1.167596 1.182015 1.218503 1.335004
P_21 1.219142 1.180666 1.233115 1.259118 1.084984 1.140797 0.990168 0.806824
P_21 0.701807 0.599178 0.487711 0.434142 0.378742 0.397642 0.381232 0.436874
P_21 0.506615 0.563243 0.713377 0.809131 0.958009 1.104046 1.215535 1.236932
P_21 1.391332 1.501659 1.609260 1.585457 1.481471 1.466520 1.491513 1.524743
P_21 1.438168 1.338701 1.377047 1.280271 1.298226 1.137596 1.187569 1.226795
P_21 1.341151 1.248236 1.415070 1.452679 1.451976 1.344505 1.512156 1.507708
P_21 1.518971 1.509568 1.399775 1.435880 1.330834 1.168078 1.025170 0.903858
P_21 0.801880 0.694199 0.550603 0.605117 0.479834 0.452152 0.470940 0.524245
P_21 0.576962 0.678384 0.776234 0.957033 1.087761 1.364661 1.334392 1.402836
P_21 1.657050 1.682485 1.700901 1.659821 1.804039 1.813345 1.682209 1.615478
P_21 1.564230 1.371860 1.580715 1.369320 1.362517 1.222446 1.305746 1.323037
P_21 1.255294 1.273218 1.233351 1.243306 1.237098 1.221436 1.266029 1.194006
P_21 1.119156 1.186972 1.146257 1.081298 0.930025 0.904206 0.853243 0.761110
P_21 0.762313 0.564212 0.583553 0.484698 0.460426 0.416744 0.406744 0.366531
P_21 0.413416 0.476896 0.531238 0.531999 0.624362 0.641694 0.809060 0.927514
P_21 0.963599 1.098554 1.138534 1.230202 1.288260 1.205302 1.250494 1.217730
P_21 1.214265 1.138820 1.098810 1.062723 1.098749 1.086179 1.105721 1.093251
P_21 1.093571 1.126318 1.013220 1.094016 1.109423 1.022099 1.028920 0.989028
P_21 1.031121 1.031309 0.845383 0.847180 0.791410 0.740565 0.690617 0.570183
P_21 0.568305 0.565190 0.473502 0.444607 0.410796 0.352100 0.332100 0.348816
P_21 0.353395 0.354888 0.414752 0.391518 0.465666 0.474241 0.622825 0.649825
P_21 0.762074 0.769312 0.846844 0.980559 0.965505 1.045650 1.062364 1.093695
P_21 1.126400 1.077242 1.054818 0.952654 0.994664 0.941438 0.965283 0.938178
P_21 0.881814 0.957485 0.902786 0.947319 0.969574 0.989363 0.924761 1.044142
P_21 1.084344 1.002638 1.017275 0.997864 0.840016 0.815368 0.713542 0.686531

P_20 0.595515 0.517562 0.434025 0.367096 0.377925 0.354968 0.345046 0.413381
P_20 0.461808 0.542426 0.567761 0.698187 0.745115 0.921560 0.871312 0.946805
P_20 1.266710 1.239741 1.263046 1.390254 1.382583 1.346949 1.328285 1.416037
P_20 1.314279 1.090589 1.204807 1.108948 1.063776 0.908445 0.964768 0.863788
P_20 1.001136 0.937413 0.968337 1.067212 1.007663 1.147843 1.161626 1.208437
P_20 1.158849 1.262367 1.194233 1.081658 1.012679 1.065998 0.906106 0.838030
P_20 0.676510 0.618117 0.571632 0.511839 0.470800 0.431589 0.442689 0.510559
P_20 0.474216 0.634391 0.676659 0.744402 0.961082 0.976928 1.079575 1.182888
P_20 1.287971 1.389194 1.331609 1.261710 1.428327 1.366313 1.439007 1.462618
P_20 1.321851 1.355381 1.251909 1.233146 1.059806 1.226411 1.153728 1.065720
P_20 1.061310 1.108102 1.214321 1.195188 1.185455 1.197550 1.237522 1.261770
P_20 1.411311 1.310091 1.265236 1.190978 1.007385 0.917172 0.912183 0.762494
P_20 0.708159 0.578949 0.521644 0.468692 0.409629 0.437186 0.430504 0.456250
P_20 0.570607 0.587027 0.690366 0.819370 0.882369 1.039014 1.150744 1.169827
P_20 1.307562 1.297995 1.310325 1.353826 1.376332 1.366959 1.532679 1.504844
P_20 1.264566 1.223767 1.172761 1.201321 1.115968 1.077176 1.197374 1.119150
P_20 1.144337 1.176015 1.084983 1.213824 1.110415 1.238629 1.272981 1.186665
P_20 1.240930 1.313733 1.297184 1.126005 1.096617 1.035389 0.932775 0.847845
P_20 0.800891 0.692784 0.588573 0.547786 0.458342 0.474746 0.450750 0.527554
P_20 0.619871 0.664499 0.755692 0.947854 0.945313 1.125144 1.318754 1.275952
P_20 1.513441 1.505253 1.585343 1.493249 1.722759 1.294530 1.444805 1.505685
P_20 1.528485 1.448577 1.470535 1.346652 1.119160 1.179529 1.231437 1.210027
P_20 1.164012 1.378675 1.314664 1.293833 1.195592 1.471573 1.450120 1.436366
P_20 1.369496 1.343891 1.436367 1.314769 1.215513 1.209891 0.997200 0.951781
P_20 0.831954 0.789148 0.647187 0.557809 0.563538 0.537238 0.525239 0.570424
P_20 0.615646 0.793051 0.877913 1.083259 1.088141 1.248756 1.595767 1.496114
P_20 1.509865 1.915894 1.726203 1.793292 1.706836 1.684901 1.706242 1.715102
P_20 1.425646 1.495739 1.455030 1.312210 1.216329 1.218130 1.200174 1.230882
P_20 1.096563 1.214247 1.237952 1.183594 1.240517 1.212273 1.227661 1.150364
P_20 1.196161 1.164638 1.148254 1.055346 0.994875 0.931926 0.876328 0.858933
P_20 0.781426 0.676641 0.614352 0.611925 0.524984 0.440420 0.470068 0.452014
P_20 0.443693 0.497194 0.549014 0.678005 0.671242 0.741198 0.824963 0.915336
P_20 1.053604 1.133170 1.086212 1.242056 1.043498 1.220798 1.223231 1.262519
P_20 1.189415 1.195742 1.125808 1.100296 1.106645 0.982955 1.123436 0.996273
P_20 0.949149 1.093169 1.067342 1.045949 1.048779 0.991038 0.920198 0.977206
P_20 0.919452 0.925478 0.863030 0.796056 0.795715 0.665455 0.675557 0.653061
P_20 0.611802 0.533989 0.489974 0.449354 0.440174 0.418648 0.422144 0.414122
P_20 0.427844 0.398333 0.404922 0.476864 0.489870 0.543120 0.648681 0.703732
P_20 0.738568 0.837601 0.904274 0.853426 0.997585 0.972628 0.956266 1.057636
P_20 1.006327 1.061047 0.977065 0.962964 0.986024 0.876047 0.992922 0.922154
P_20 0.885918 0.866645 0.916597 0.971760 0.930581 1.009149 0.974337 0.937394
P_20 0.937179 0.920539 0.877175 0.886397 0.769083 0.769644 0.703943 0.674991

P_23 0.578375 0.586241 0.522633 0.395260 0.406337 0.384747 0.390131 0.427076
P_23 0.419335 0.539826 0.610743 0.683802 0.752214 0.825268 0.890948 0.986401
P_23 1.147156 1.373118 1.282808 1.307507 1.410452 1.405330 1.320369 1.390081
P_23 1.352532 1.231904 1.184144 1.029708 1.012597 1.032699 1.048407 1.052171
P_23 0.999027 1.001575 0.939600 1.002052 1.068929 1.142989 1.139449 1.145866
P_23 1.096261 1.193399 1.128761 1.049338 1.033377 0.912104 0.911545 0.777872
P_23 0.699321 0.644341 0.605475 0.518368 0.486280 0.534731 0.481893 0.492937
P_23 0.545566 0.646467 0.703126 0.822087 0.872665 0.962051 1.003273 1.164768
P_23 1.252226 1.325650 1.235107 1.517721 1.490831 1.445902 1.562836 1.527754
P_23 1.573229 1.292275 1.190888 1.198480 1.091547 1.090334 1.160810 1.050171
P_23 1.106785 1.042571 1.228044 1.144231 1.176631 1.255087 1.121750 1.249840
P_23 1.215788 1.112531 1.264497 1.031744 1.050185 1.007167 0.913714 0.758815
P_23 0.759269 0.607397 0.555158 0.546605 0.500263 0.490482 0.476992 0.517240
P_23 0.558813 0.634806 0.715331 0.771719 0.885016 0.968430 1.076142 1.185969
P_23 1.248483 1.257726 1.267839 1.369785 1.316854 1.309826 1.461729 1.303944
P_23 1.292745 1.363368 1.189354 1.225617 1.201367 1.091878 1.078794 1.169574
P_23 1.095779 1.065453 1.095190 1.256213 1.092098 1.250391 1.107189 1.210725
P_23 1.245276 1.243029 1.175469 1.140424 1.116841 0.950026 0.931880 0.864007
P_23 0.773648 0.654473 0.560534 0.541947 0.522445 0.533037 0.527427 0.551450
P_23 0.568441 0.629681 0.743977 0.891480 0.989582 1.178684 1.043510 1.305004
P_23 1.510483 1.383634 1.594684 1.579664 1.483978 1.473546 1.408642 1.523753
P_23 1.255777 1.375470 1.379807 1.227439 1.279153 1.223856 1.121798 1.304776
P_23 1.245364 1.213401 1.233222 1.305987 1.305863 1.490161 1.343453 1.481252
P_23 1.509251 1.277905 1.369771 1.281145 1.290544 1.016387 1.117995 1.022549
P_23 0.810359 0.773578 0.686715 0.610593 0.571709 0.512074 0.599723 0.587488
P_23 0.713060 0.805052 0.866113 0.995414 1.060820 1.312772 1.321839 1.565698
P_23 1.487961 1.541902 1.768073 1.696747 1.671977 1.553101 1.658339 1.661363
P_23 1.377144 1.378757 1.293422 1.308058 1.265051 1.215617 1.251196 1.136596
P_23 1.233938 1.312963 1.242453 1.278881 1.110230 1.140934 1.177533 1.158744
P_23 1.135882 1.097050 1.146631 0.966269 1.035873 0.952567 0.855576 0.765623
P_23 0.741706 0.718200 0.654841 0.578794 0.537641 0.527059 0.461824 0.502088
P_23 0.511987 0.489464 0.606152 0.680908 0.704519 0.798118 0.847799 0.852197
P_23 0.984708 1.022263 1.044277 1.192344 1.137024 1.175580 1.212268 1.115198
P_23 1.159066 1.227043 1.049438 1.129767 1.194623 0.963257 1.061799 1.043285
P_23 1.022269 1.050994 1.074076 1.000388 1.003618 1.002356 0.956779 0.996870
P_23 0.925889 0.897744 0.851446 0.809148 0.804325 0.769377 0.655189 0.713917
P_23 0.609947 0.571561 0.561410 0.493469 0.468143 0.447210 0.433898 0.425528
P_23 0.467944 0.431690 0.472399 0.486425 0.620337 0.628525 0.730478 0.766472
P_23 0.788761 0.883506 0.908188 0.918746 0.888038 1.078987 1.078168 1.055388
P_23 1.100935 1.069218 1.118218 0.973712 0.919416 0.933841 0.925729 0.951559
P_23 0.970867 0.925585 0.942410 0.835112 0.862368 0.986463 0.990338 0.931470
P_23 0.963964 0.972985 0.982634 0.833878 0.796963 0.799383 0.643835 0.654746

P_22 0.687619 0.573198 0.601645 0.557651 0.519490 0.513680 0.506145 0.604124
P_22 0.557519 0.645629 0.680982 0.751516 0.805136 0.865945 1.018421 0.953984
P_22 1.097019 1.201180 1.248505 1.248479 1.175603 1.206000 1.322312 1.282951
P_22 1.117740 1.152326 1.163244 0.963860 1.033106 0.983597 0.942624 0.999227
P_22 0.957801 0.923130 1.001284 0.991411 1.093318 1.076569 1.128320 1.139818
P_22 1.138106 1.101826 1.106592 1.138716 1.052055 0.913205 0.903309 0.813061
P_22 0.803646 0.728929 0.686683 0.646056 0.557763 0.571226 0.575610 0.631690
P_22 0.646388 0.726577 0.814307 0.836977 0.965368 0.931189 1.071687 1.175214
P_22 1.259458 1.288090 1.464727 1.273873 1.346998 1.295925 1.272478 1.275223
P_22 1.207476 1.176001 1.186720 1.116691 1.117531 1.107250 1.067478 1.013012
P_22 0.976008 1.057735 1.080141 1.145944 1.181582 1.260558 1.149256 1.138049
P_22 1.212257 1.199548 1.199838 1.167632 1.131102 0.995815 1.061878 0.906952
P_22 0.817553 0.775287 0.650868 0.671496 0.579281 0.555321 0.548505 0.644669
P_22 0.665273 0.747429 0.759915 0.845835 0.933832 0.944730 1.094291 1.159328
P_22 1.196333 1.195628 1.332898 1.335065 1.460219 1.325718 1.257975 1.223411
P_22 1.268930 1.087545 1.073007 1.127523 1.189541 1.037446 1.057132 1.011555
P_22 1.108593 1.057469 1.084661 1.101113 1.153695 1.161825 1.129234 1.200011
P_22 1.256004 1.155689 1.129832 1.010079 1.118145 1.047801 0.947869 0.880488
P_22 0.809355 0.763464 0.737371 0.616540 0.595976 0.638901 0.591560 0.648504
P_22 0.681364 0.767716 0.847075 0.902832 0.970694 1.060790 1.167313 1.267709
P_22 1.285222 1.416196 1.425233 1.384512 1.460689 1.429369 1.375647 1.257360
P_22 1.432587 1.161364 1.260640 1.272935 1.309110 1.173173 1.188977 1.107708
P_22 1.153373 1.196524 1.276471 1.405793 1.282792 1.327573 1.349658 1.385744
P_22 1.243787 1.385494 1.326020 1.256021 1.319135 1.158942 1.148711 1.089702
P_22 0.903786 0.830913 0.788579 0.710013 0.753017 0.706440 0.644882 0.722533
P_22 0.747155 0.843260 0.858896 1.042227 1.070823 1.133395 1.491656 1.450231
P_22 1.649339 1.467295 1.531865 1.595452 1.652894 1.473935 1.443311 1.324414
P_22 1.319138 1.339249 1.198708 1.301639 1.257362 1.171522 1.194494 1.058398
P_22 1.089913 1.188730 1.182178 1.198254 1.132574 1.028120 1.290928 1.141656
P_22 1.221162 1.177864 1.083451 1.115377 1.081473 0.976961 0.857835 0.887093
P_22 0.757524 0.755590 0.706886 0.677495 0.660464 0.568895 0.556050 0.625239
P_22 0.586207 0.636354 0.643704 0.790313 0.750460 0.779831 0.836659 0.881166
P_22 1.031423 1.032386 1.123244 1.086499 1.023540 1.144977 1.178338 1.111272
P_22 1.056727 1.047871 1.195390 1.068933 1.032717 0.984009 1.015524 1.019352
P_22 0.981063 1.112989 0.973041 1.020504 0.933613 1.005876 0.966627 1.006767
P_22 0.883393 0.891418 0.902778 0.880479 0.857637 0.715552 0.701518 0.736015
P_22 0.641194 0.664797 0.593773 0.595930 0.612517 0.524347 0.549981 0.504969
P_22 0.524898 0.573498 0.557917 0.559156 0.592840 0.628652 0.702195 0.763205
P_22 0.775438 0.889877 0.885755 0.865689 0.983223 0.926000 0.888936 1.007297
P_22 1.007250 0.945885 0.890760 0.924685 0.923885 0.905766 0.961227 0.963209
P_22 0.895454 0.902713 0.876694 0.882101 0.986753 0.994852 0.894225 0.962387
P_22 0.978269 0.907876 1.004167 0.982592 0.868456 0.808799 0.846842 0.740409

P_25 0.603577 0.567363 0.532890 0.533149 0.439514 0.464277 0.458836 0.476334
P_25 0.558228 0.554359 0.648675 0.750987 0.754732 0.886188 0.977941 1.010229
P_25 1.143251 1.204406 1.283143 1.303739 1.374565 1.349361 1.328571 1.365184
P_25 1.241850 1.168677 1.171118 1.095781 1.121706 1.029751 1.019641 0.980353
P_25 0.864065 0.942710 1.004608 0.964891 1.091280 1.076475 1.142997 1.125867
P_25 1.100045 1.137757 1.094540 1.099761 1.069655 0.930937 0.895348 0.879497
P_25 0.767231 0.709173 0.681863 0.620881 0.576660 0.564801 0.548277 0.548035
P_25 0.580025 0.695842 0.667351 0.818281 0.934649 1.022915 1.157367 1.258666
P_25 1.302873 1.340271 1.333340 1.436524 1.391091 1.333216 1.409725 1.371160
P_25 1.232682 1.242928 1.125670 1.098110 1.113897 1.151789 1.145069 1.101380
P_25 1.145861 1.014670 1.143481 1.135371 1.184117 1.168884 1.092995 1.227234
P_25 1.239398 1.140429 1.097980 1.093002 1.174567 0.992461 0.914364 0.773061
P_25 0.714722 0.660616 0.596421 0.579851 0.548817 0.491914 0.558475 0.529510
P_25 0.583031 0.654988 0.793735 0.798896 0.861589 0.970920 1.014817 1.215110
P_25 1.260070 1.218283 1.327241 1.326277 1.325364 1.244462 1.403795 1.338812
P_25 1.190668 1.210017 1.254376 1.264871 1.158709 1.178669 1.077391 1.078919
P_25 1.078242 1.122003 1.063574 1.037449 1.129350 1.283525 1.199979 1.216147
P_25 1.199505 1.127016 1.117347 1.134608 1.119750 0.979785 0.815180 0.892183
P_25 0.860362 0.722910 0.661240 0.664558 0.588300 0.580969 0.579151 0.616692
P_25 0.663972 0.759457 0.902575 0.890862 1.001041 1.089843 1.144888 1.336598
P_25 1.326810 1.345045 1.392859 1.506019 1.426748 1.579237 1.447862 1.344470
P_25 1.328391 1.369606 1.305375 1.277399 1.239677 1.304755 1.164329 1.265178
P_25 1.253698 1.207355 1.275669 1.201173 1.380882 1.288973 1.523743 1.322336
P_25 1.220659 1.289364 1.385704 1.293415 1.199120 1.108111 1.160012 1.021290
P_25 0.848758 0.793167 0.779016 0.680803 0.599430 0.626991 0.651558 0.734993
P_25 0.672286 0.807084 0.883140 0.974409 1.097781 1.355885 1.462576 1.365866
P_25 1.457113 1.609381 1.689354 1.624723 1.704388 1.697749 1.505827 1.563627
P_25 1.376004 1.424309 1.354171 1.280358 1.168276 1.275752 1.090337 1.173456
P_25 1.126055 1.194247 1.086022 1.190076 1.173457 1.166575 1.113381 1.259855
P_25 1.128138 1.090984 1.071204 1.096821 0.992946 0.860872 0.921307 0.863207
P_25 0.821218 0.779802 0.633743 0.615590 0.558575 0.530029 0.533745 0.521830
P_25 0.534905 0.602502 0.594925 0.662241 0.747816 0.830695 0.889519 0.927127
P_25 0.861945 0.950349 1.170442 1.213755 1.185756 1.158748 1.113155 1.163510
P_25 1.188417 1.156055 1.077733 1.067914 1.010953 1.016538 1.124886 1.005229
P_25 0.987586 0.916067 1.043205 1.005965 0.865756 0.942838 1.017380 0.880388
P_25 0.898126 0.879754 0.873022 0.867235 0.752327 0.678848 0.704951 0.639661
P_25 0.646298 0.624966 0.616192 0.551195 0.528537 0.501388 0.460273 0.500444
P_25 0.454737 0.532082 0.511520 0.533853 0.638937 0.637058 0.637638 0.700525
P_25 0.783724 0.868216 0.871190 0.954146 0.967638 0.939131 1.034062 1.017219
P_25 1.042712 1.010636 0.927017 1.048582 0.945714 0.859562 0.892711 0.924333
P_25 0.852044 0.903978 0.911798 0.910500 0.995600 0.893718 0.918690 0.937602
P_25 0.943241 1.001245 0.930818 0.944671 0.801307 0.773307 0.747185 0.710282

P_24 0.617297 0.519403 0.418557 0.415182 0.339825 0.322670 0.344784 0.398437
P_24 0.417380 0.391779 0.571134 0.744379 0.780289 0.853862 1.064720 1.098716
P_24 1.112700 1.318873 1.350534 1.360178 1.308946 1.337072 1.299565 1.400428
P_24 1.360263 1.267726 1.078923 1.178965 1.036947 1.010960 0.960999 1.003126
P_24 0.924920 0.968482 0.995481 0.986064 1.161585 1.083066 1.103759 1.189433
P_24 1.136911 1.230759 1.210085 1.120525 1.116657 1.035877 0.965530 0.814538
P_24 0.729720 0.643042 0.530245 0.500967 0.419974 0.414664 0.379906 0.411149
P_24 0.527613 0.581031 0.660054 0.761639 0.847376 1.008624 1.080773 1.142808
P_24 1.317560 1.362759 1.491637 1.553345 1.522980 1.448449 1.371425 1.438916
P_24 1.459721 1.345934 1.156789 1.237604 1.123804 1.171707 1.033790 1.104950
P_24 1.107450 1.174286 1.182967 1.237455 1.280432 1.339068 1.166866 1.328968
P_24 1.288007 1.225480 1.234680 1.117352 1.081639 1.022802 0.970749 0.752192
P_24 0.673011 0.638703 0.521987 0.435502 0.386086 0.400191 0.411266 0.394066
P_24 0.460396 0.588559 0.687185 0.858882 0.906493 1.027343 1.128421 1.203179
P_24 1.288775 1.368638 1.430488 1.437401 1.559221 1.462348 1.376066 1.491097
P_24 1.357635 1.349367 1.268014 1.258775 1.128247 1.160467 1.154547 1.162464
P_24 1.120309 1.085106 1.185361 1.130587 1.199044 1.219211 1.284709 1.126983
P_24 1.190706 1.241496 1.299298 1.184390 1.105821 1.029705 0.942058 0.825080
P_24 0.798584 0.682109 0.570983 0.461221 0.441908 0.408787 0.418343 0.440764
P_24 0.499415 0.607331 0.714835 0.776647 0.997086 1.048815 1.301929 1.384720
P_24 1.442749 1.524530 1.406936 1.594035 1.619542 1.565910 1.575126 1.475314
P_24 1.431859 1.354040 1.437793 1.167890 1.271133 1.201036 1.360683 1.233435
P_24 1.342821 1.269713 1.249767 1.226086 1.467368 1.349985 1.427902 1.469693
P_24 1.403552 1.434893 1.507898 1.176703 1.188621 1.209868 1.046803 0.966790
P_24 0.830523 0.698489 0.657540 0.548774 0.524084 0.447494 0.476397 0.534901
P_24 0.566143 0.719545 0.852046 1.030540 1.097611 1.350186 1.422509 1.630457
P_24 1.685341 1.686053 1.818187 1.678173 1.842683 1.675301 1.701680 1.662860
P_24 1.636493 1.490940 1.427496 1.393548 1.219849 1.185066 1.191237 1.262591
P_24 1.095781 1.222694 1.183194 1.307331 1.208614 1.258669 1.339646 1.228241
P_24 1.194108 1.164335 1.099395 1.106075 1.041666 0.952381 0.910306 0.754620
P_24 0.703953 0.613478 0.547947 0.456889 0.456525 0.440292 0.447426 0.379583
P_24 0.420371 0.426391 0.557268 0.613004 0.714489 0.730730 0.824792 0.982519
P_24 1.000721 1.123689 1.084471 1.197081 1.218726 1.270991 1.232519 1.255484
P_24 1.190961 1.189840 1.037840 1.052875 1.077390 1.043129 1.001314 0.956213
P_24 1.022028 1.001813 1.059114 1.038762 1.025784 1.153048 0.999795 1.017698
P_24 0.943023 0.915045 0.961562 0.892978 0.780842 0.796187 0.677601 0.623638
P_24 0.596569 0.576270 0.505638 0.433803 0.449039 0.388088 0.382514 0.352207
P_24 0.363082 0.376435 0.443307 0.437674 0.528054 0.607342 0.629406 0.690946
P_24 0.838659 0.898839 0.895044 0.999119 0.998314 1.045777 1.086062 1.077949
P_24 1.075237 1.096338 1.093499 0.932685 0.995127 0.852871 1.019599 0.950931
P_24 0.846897 0.929972 0.868714 0.922504 0.997359 1.010311 1.010524 0.983570
P_24 0.931784 0.991639 0.966177 0.965582 0.822159 0.792509 0.723150 0.681086

P_27 0.556653 0.570855 0.468431 0.479011 0.462493 0.485930 0.473708 0.481185
P_27 0.561433 0.575531 0.676652 0.652613 0.735869 0.863477 0.934756 1.095805
P_27 1.114109 1.118579 1.093047 1.359205 1.359694 1.297144 1.286107 1.331014
P_27 1.229468 1.208278 1.134090 1.032053 1.022696 0.920164 0.913225 1.003157
P_27 0.935783 1.105368 0.923533 1.080341 1.034852 1.094292 1.174167 1.161894
P_27 1.216812 1.095359 1.076069 1.127608 1.074062 0.968936 0.960610 0.869053
P_27 0.808076 0.765752 0.654852 0.572947 0.520179 0.502296 0.577993 0.588008
P_27 0.634579 0.664645 0.723243 0.850645 0.904174 0.987946 1.098579 1.226754
P_27 1.248303 1.318149 1.289339 1.385212 1.360319 1.444130 1.360649 1.379133
P_27 1.278193 1.305855 1.099839 1.161667 1.198111 1.145664 1.088771 1.025353
P_27 1.094088 1.052183 1.028077 1.222005 1.179544 1.258530 1.116221 1.155500
P_27 1.326327 1.193280 1.284040 1.084067 0.987046 0.945227 0.924472 0.883488
P_27 0.766706 0.680836 0.582669 0.548137 0.497624 0.578618 0.517860 0.514419
P_27 0.629099 0.721628 0.757178 0.762473 0.870178 0.983595 1.071568 1.166665
P_27 1.191555 1.291586 1.378730 1.285994 1.389147 1.323595 1.276057 1.228309
P_27 1.312026 1.325191 1.264260 1.298227 1.181031 1.106061 1.160396 1.134299
P_27 1.126752 1.206165 1.105965 1.124312 1.026167 1.213610 1.290095 1.143706
P_27 1.212088 1.151155 1.137182 1.152237 1.098646 0.967842 0.948452 0.834008
P_27 0.742483 0.829632 0.643627 0.614474 0.602709 0.546006 0.637440 0.569481
P_27 0.648536 0.768816 0.822078 0.877973 1.012430 1.129257 1.257599 1.342093
P_27 1.407486 1.224282 1.477490 1.300453 1.461592 1.639364 1.519354 1.479636
P_27 1.352317 1.395833 1.296876 1.285918 1.253015 1.257181 1.222143 1.188683
P_27 1.328079 1.225180 1.204036 1.154047 1.334237 1.362750 1.419895 1.364858
P_27 1.321842 1.319865 1.276223 1.298947 1.312670 1.182218 1.066819 0.983849
P_27 0.851259 0.829472 0.762353 0.730440 0.591157 0.622270 0.622448 0.643279
P_27 0.758046 0.814745 0.953665 1.018246 1.113588 1.242954 1.348970 1.475687
P_27 1.597437 1.709568 1.572371 1.554706 1.643745 1.650104 1.540186 1.477869
P_27 1.470286 1.317952 1.325785 1.276120 1.235907 1.208768 1.238193 1.204129
P_27 1.300347 1.140205 1.153828 1.220788 1.220677 1.168750 1.169433 1.146302
P_27 1.204438 1.129727 1.064168 1.153662 0.975100 0.930903 0.900573 0.833122
P_27 0.795281 0.783660 0.694445 0.628561 0.625795 0.539844 0.550212 0.529219
P_27 0.541847 0.653865 0.584759 0.656199 0.682951 0.776945 0.755865 0.960110
P_27 0.962673 0.990124 1.170170 1.110404 1.202923 1.163293 1.128790 1.234282
P_27 0.998148 1.128882 1.072211 1.022743 0.976892 1.050625 0.944818 0.961170
P_27 0.946122 1.091266 0.977935 1.069356 0.907286 0.963861 0.975976 0.911471
P_27 0.933220 0.948798 0.771852 0.841724 0.779235 0.817325 0.704741 0.684491
P_27 0.566628 0.647009 0.537526 0.542650 0.477557 0.510515 0.471024 0.470922
P_27 0.429643 0.497823 0.501374 0.515363 0.565899 0.637391 0.670835 0.719441
P_27 0.779243 0.813316 0.831264 0.917736 1.016957 1.058959 1.084825 0.941707
P_27 0.983172 1.038017 0.980403 0.925508 1.038663 0.912086 0.817245 0.941399
P_27 0.874041 0.879636 0.872442 0.873447 0.931516 0.988737 0.962795 0.878962
P_27 0.915608 0.867920 0.850312 0.865760 0.841045 0.833736 0.743286 0.704964

P_26 0.629540 0.539049 0.449853 0.440030 0.371732 0.364821 0.385795 0.394768
P_26 0.416308 0.453035 0.603526 0.698440 0.856165 0.937799 0.998229 1.069190
P_26 1.128503 1.299750 1.180120 1.448036 1.359047 1.361538 1.356187 1.234066
P_26 1.261489 1.233739 1.169633 1.035198 1.059602 1.020749 0.956020 0.963890
P_26 0.934566 1.021158 0.948154 1.109703 1.109360 1.074661 1.081892 1.047089
P_26 1.266699 1.256005 1.256899 1.180464 1.084778 1.020361 0.891595 0.850308
P_26 0.721315 0.650769 0.548690 0.466458 0.456944 0.484299 0.446848 0.474243
P_26 0.554396 0.614736 0.703470 0.784056 0.894521 0.981122 1.093721 1.159991
P_26 1.176203 1.308540 1.384043 1.444759 1.320911 1.539710 1.524197 1.292831
P_26 1.323094 1.364023 1.117578 1.126384 1.146915 1.098302 1.117425 1.104765
P_26 1.084065 1.051681 1.055245 1.185992 1.168569 1.271378 1.119728 1.327895
P_26 1.166580 1.229774 1.278766 1.142941 1.075893 1.018367 0.882081 0.816781
P_26 0.746632 0.613565 0.518944 0.458332 0.477021 0.449300 0.464266 0.486066
P_26 0.507195 0.590337 0.671583 0.710164 0.868050 0.984710 1.080651 1.252471
P_26 1.178209 1.387273 1.398539 1.488485 1.382906 1.382177 1.438646 1.398721
P_26 1.331732 1.243644 1.190069 1.242150 1.136625 1.046267 1.094669 1.129926
P_26 1.158973 1.254959 1.088545 1.150915 1.215351 1.221389 1.164921 1.209686
P_26 1.229520 1.065033 1.207710 1.189914 1.185362 1.010496 0.940587 0.787341
P_26 0.746134 0.701969 0.610593 0.560829 0.495962 0.441805 0.475377 0.496427
P_26 0.576388 0.609271 0.707704 0.900498 0.981133 1.058671 1.170243 1.304047
P_26 1.294711 1.518116 1.568326 1.533055 1.491136 1.522077 1.531839 1.326903
P_26 1.376873 1.359245 1.262027 1.240453 1.144204 1.310888 1.227511 1.229829
P_26 1.325448 1.297450 1.319791 1.326103 1.366312 1.362850 1.364194 1.358833
P_26 1.400585 1.242520 1.235330 1.330274 1.304569 1.146284 1.022770 0.969891
P_26 0.839703 0.748658 0.683620 0.574257 0.548716 0.482014 0.536611 0.593321
P_26 0.717258 0.692652 0.894005 0.955324 1.025391 1.385904 1.437121 1.659441
P_26 1.606108 1.771046 1.623695 1.713492 1.643542 1.659369 1.464672 1.603552
P_26 1.554468 1.427328 1.401052 1.198517 1.185138 1.200160 1.297573 1.183383
P_26 1.208888 1.336331 1.228133 1.223893 1.317096 1.266250 1.260796 1.248879
P_26 1.287321 1.202102 1.139647 1.066710 1.077370 1.049156 0.865362 0.822168
P_26 0.806173 0.646368 0.634620 0.522840 0.568537 0.451015 0.429442 0.394010
P_26 0.446447 0.467053 0.602492 0.654609 0.712207 0.791200 0.842358 0.908942
P_26 1.006378 1.066980 1.075856 1.158244 1.181047 1.218270 1.270738 1.116126
P_26 1.139405 1.075598 1.114391 1.034578 0.970775 1.109923 1.027039 1.093592
P_26 1.071803 0.991708 1.089384 1.025051 0.983922 1.098024 0.978608 0.964727
P_26 1.053765 0.977111 0.886057 0.886833 0.802574 0.786211 0.697193 0.595453
P_26 0.540597 0.592492 0.556377 0.501349 0.473062 0.428023 0.418683 0.415780
P_26 0.424111 0.470616 0.431047 0.483183 0.519800 0.557575 0.690869 0.709112
P_26 0.751904 0.876269 1.006839 0.979555 0.934499 1.131684 0.998285 1.073653
P_26 0.983011 1.033754 1.099880 1.062130 1.043951 0.885938 0.922504 0.891372
P_26 0.960954 0.822166 0.936709 0.991643 0.939235 1.042574 1.041813 1.003111
P_26 0.957708 0.952285 0.881581 0.992663 0.850713 0.818163 0.832383 0.685362

P_10 0.681083 0.511993 0.475013 0.446895 0.474071 0.466208 0.463262 0.488171
P_10 0.487734 0.565098 0.679474 0.699296 0.752325 0.898188 0.969101 1.068862
P_10 1.260964 1.308509 1.240276 1.276876 1.363443 1.350273 1.174906 1.249888
P_10 1.261820 1.227812 1.015444 1.108261 1.129043 1.051397 0.911177 0.967934
P_10 1.007585 1.030138 0.981187 1.075179 1.037662 1.073270 1.165267 1.211414
P_10 1.104996 1.164142 1.137143 1.058585 1.099313 1.084005 0.877202 0.805980
P_10 0.786597 0.665740 0.621547 0.546305 0.543675 0.494033 0.496793 0.604871
P_10 0.593863 0.628292 0.718724 0.794163 0.885217 0.992828 1.064753 1.186462
P_10 1.310066 1.262852 1.305064 1.376950 1.388235 1.320755 1.443438 1.337208
P_10 1.515995 1.290836 1.154679 1.225146 1.171157 0.973771 1.039785 1.035769
P_10 1.063299 1.058056 1.117334 1.185223 1.087057 1.210837 1.198373 1.335274
P_10 1.224182 1.245797 1.217499 1.166552 1.013178 1.038368 0.963337 0.888595
P_10 0.688068 0.602891 0.588369 0.553986 0.537831 0.493737 0.540066 0.553968
P_10 0.607280 0.680420 0.722230 0.832904 0.972566 0.946788 1.062734 1.139493
P_10 1.240931 1.254724 1.269701 1.354056 1.329489 1.430362 1.462970 1.380384
P_10 1.346260 1.180361 1.211400 1.213416 1.201291 1.033055 1.002039 1.120816
P_10 1.137242 1.155809 1.118131 1.048256 1.219115 1.147792 1.184795 1.191489
P_10 1.126286 1.248994 1.082214 1.107515 1.110506 1.068915 0.961476 0.920747
P_10 0.801266 0.702530 0.689492 0.610248 0.599053 0.512462 0.526777 0.538401
P_10 0.632926 0.720260 0.760432 0.854229 0.975990 1.209153 1.285380 1.402348
P_10 1.427364 1.449411 1.569531 1.443265 1.514258 1.493924 1.428179 1.406707
P_10 1.391488 1.297929 1.343254 1.339565 1.268527 1.286294 1.269657 1.271899
P_10 1.157138 1.340523 1.179977 1.332351 1.249894 1.324934 1.247686 1.368477
P_10 1.329845 1.487095 1.332335 1.342631 1.247039 1.084493 1.034612 0.939151
P_10 0.895257 0.787070 0.718446 0.672584 0.622911 0.614972 0.656841 0.606512
P_10 0.718722 0.765799 0.915924 0.982120 1.096248 1.282824 1.192807 1.458842
P_10 1.480477 1.536103 1.802906 1.648605 1.614194 1.503297 1.646023 1.575738
P_10 1.457672 1.350772 1.391923 1.363456 1.361376 1.269689 1.299829 1.234969
P_10 1.095536 1.114792 1.190655 1.047491 1.269316 1.204682 1.186773 1.205505
P_10 1.242472 1.278295 1.135830 1.087567 1.101129 0.956282 0.841344 0.849046
P_10 0.802617 0.717288 0.643883 0.587524 0.570914 0.565977 0.521065 0.538422
P_10 0.524226 0.596197 0.630064 0.686961 0.718810 0.724699 0.895880 0.944329
P_10 1.004032 1.044623 1.103305 1.106844 1.101872 1.192137 1.229443 1.147281
P_10 1.217255 1.137378 1.159631 0.957998 1.001305 1.047894 0.955968 1.058373
P_10 0.928824 1.030535 0.995875 1.005513 0.935839 1.025142 0.958845 0.927484
P_10 0.950362 0.891312 0.873802 0.829306 0.829013 0.760040 0.762933 0.705042
P_10 0.646464 0.607422 0.547223 0.533948 0.484580 0.457941 0.464359 0.470242
P_10 0.458520 0.499778 0.541405 0.494923 0.581650 0.662803 0.654216 0.722867
P_10 0.742550 0.824823 0.881807 0.910375 0.995581 1.085977 1.068013 0.969500
P_10 0.955657 1.061003 0.983533 0.994024 0.927871 1.004861 0.880888 1.001875
P_10 0.869913 0.878319 0.896252 0.962854 0.869068 0.934861 0.912982 0.984474
P_10 1.010357 0.879408 0.825458 0.878447 0.904312 0.843677 0.751881 0.717686

P_11 0.604932 0.598832 0.489356 0.429678 0.407338 0.405698 0.406468 0.422330
P_11 0.497002 0.522812 0.629371 0.693089 0.849274 0.908092 0.937222 1.129175
P_11 1.187710 1.317401 1.294380 1.331477 1.338695 1.270830 1.248625 1.227563
P_11 1.336405 1.126655 1.164224 1.106758 1.000762 1.035322 1.070161 0.928871
P_11 0.987448 0.889236 1.062590 1.032836 1.053110 1.077554 1.011202 1.183982
P_11 1.235366 1.094699 1.105113 1.065716 1.036288 0.979765 0.914283 0.887144
P_11 0.772260 0.679047 0.569802 0.541564 0.513268 0.521942 0.488893 0.490721
P_11 0.560894 0.638311 0.647973 0.799768 0.933997 0.989635 1.154880 1.150080
P_11 1.195326 1.426584 1.435301 1.445652 1.452571 1.447750 1.424801 1.609229
P_11 1.292624 1.307295 1.162824 1.086037 1.191556 1.062424 1.148825 1.029311
P_11 1.001626 1.120963 1.093648 1.247970 1.324109 1.228445 1.305447 1.388946
P_11 1.337129 1.285205 1.249543 1.058095 1.052172 1.002642 0.894714 0.827144
P_11 0.707404 0.682503 0.570787 0.514520 0.425851 0.441281 0.463325 0.483181
P_11 0.571679 0.641351 0.662145 0.820227 0.931422 0.919665 1.136571 1.269527
P_11 1.256614 1.225192 1.316088 1.323112 1.385989 1.322204 1.366140 1.249422
P_11 1.283007 1.337987 1.109634 1.182828 1.047226 1.091739 1.074806 1.148212
P_11 1.174236 1.055791 1.125638 1.063872 1.160639 1.173739 1.169565 1.162799
P_11 1.290954 1.189888 1.187535 1.200040 1.130162 0.985471 0.875829 0.883074
P_11 0.738716 0.699677 0.591226 0.580724 0.488727 0.442257 0.434132 0.537173
P_11 0.590584 0.730544 0.780309 0.859741 1.000393 1.166594 1.140144 1.264195
P_11 1.491883 1.499832 1.370081 1.501794 1.394660 1.565959 1.581390 1.489298
P_11 1.477138 1.339045 1.284122 1.259034 1.275415 1.271451 1.227271 1.203095
P_11 1.246878 1.423517 1.172606 1.307607 1.406203 1.448615 1.319215 1.492978
P_11 1.427576 1.358269 1.427098 1.309009 1.276672 1.137912 1.083248 0.933382
P_11 0.806253 0.712423 0.762909 0.630136 0.554332 0.561729 0.573357 0.606592
P_11 0.732216 0.666568 0.909897 0.946681 1.135614 1.310940 1.444834 1.510343
P_11 1.727569 1.673318 1.695088 1.788264 1.613834 1.556663 1.551659 1.553196
P_11 1.456156 1.517369 1.396479 1.341766 1.219919 1.236605 1.076981 1.147430
P_11 1.089243 1.230296 1.087143 1.192169 1.202914 1.167071 1.246207 1.150669
P_11 1.098946 1.134216 1.173890 1.073352 1.022144 0.916790 0.826336 0.835240
P_11 0.775702 0.745971 0.674432 0.575154 0.503556 0.520446 0.455472 0.499414
P_11 0.503177 0.560748 0.568816 0.626784 0.719765 0.858921 0.889066 0.979043
P_11 1.020632 1.104708 1.217929 1.130536 1.160949 1.159154 1.238632 1.134425
P_11 1.071646 1.200054 1.082651 1.068743 1.053284 1.059637 0.966277 1.012976
P_11 0.980810 1.009367 0.991642 1.004143 0.990630 1.033640 1.044793 0.928302
P_11 0.921845 0.901478 0.887462 0.924678 0.805692 0.807872 0.716897 0.573875
P_11 0.635290 0.569596 0.560542 0.515074 0.479358 0.404064 0.446486 0.408820
P_11 0.428432 0.456217 0.477561 0.518348 0.581960 0.562176 0.687860 0.742688
P_11 0.851425 0.920649 0.951841 1.044399 0.965951 1.001475 1.040118 1.021996
P_11 1.090545 0.951452 1.005702 1.029759 1.017194 0.860816 0.866762 0.990956
P_11 0.972773 0.967063 0.900771 0.918748 0.944144 0.966221 0.964118 1.027400
P_11 0.986839 0.946884 0.917012 0.865384 0.885922 0.782117 0.690985 0.662713

P_12 0.616624 0.554377 0.522780 0.457739 0.444603 0.390813 0.409193 0.482172
P_12 0.454684 0.538738 0.599083 0.583021 0.847034 0.846711 0.992941 1.125043
P_12 1.185713 1.288435 1.333313 1.287795 1.484487 1.366235 1.314950 1.328580
P_12 1.189174 1.156904 1.159783 1.206274 1.097537 0.973270 0.969619 1.042035
P_12 0.956847 1.025121 0.984569 0.993857 1.099121 1.227695 1.110743 1.222279
P_12 1.284674 1.237365 1.139368 1.123899 1.068198 1.025010 0.900373 0.736470
P_12 0.713537 0.659555 0.609904 0.526759 0.477671 0.500556 0.510265 0.520355
P_12 0.570723 0.671615 0.699705 0.840816 0.841867 1.066808 1.171673 1.236723
P_12 1.188091 1.320831 1.358058 1.387535 1.437903 1.484351 1.563747 1.441390
P_12 1.402018 1.267302 1.258104 1.130372 1.141390 1.130180 1.040453 1.069679
P_12 1.196330 1.043953 1.148184 1.096624 1.263071 1.253201 1.233529 1.261085
P_12 1.168277 1.164935 1.172555 1.107170 1.203334 0.944354 0.902284 0.840220
P_12 0.709668 0.658930 0.539697 0.520219 0.457512 0.462064 0.472672 0.496891
P_12 0.603261 0.648814 0.678097 0.737592 0.879510 0.973397 1.112550 1.190395
P_12 1.274847 1.256111 1.400351 1.384448 1.376814 1.290791 1.403484 1.428921
P_12 1.168931 1.268023 1.218385 1.109348 1.261260 1.178400 1.157348 1.112648
P_12 1.059976 1.199285 1.075406 1.145105 1.127314 1.200407 1.213020 1.262928
P_12 1.179987 1.185556 1.163195 1.031705 1.121244 0.957274 0.921204 0.935637
P_12 0.750816 0.683749 0.558797 0.558183 0.490903 0.495277 0.469098 0.526791
P_12 0.618161 0.682823 0.729534 0.851513 0.982301 1.083726 1.105720 1.340195
P_12 1.341096 1.471190 1.472788 1.529786 1.483761 1.539444 1.513537 1.447379
P_12 1.494383 1.344298 1.376175 1.342083 1.345673 1.335299 1.175737 1.201494
P_12 1.294052 1.293081 1.376037 1.256856 1.199936 1.359356 1.316506 1.335520
P_12 1.284631 1.293811 1.413734 1.342989 1.232912 1.145223 1.095021 1.003473
P_12 0.730133 0.876466 0.680663 0.533459 0.592120 0.550912 0.582722 0.622449
P_12 0.678864 0.759724 0.787445 1.011647 1.175118 1.299798 1.476790 1.470637
P_12 1.634904 1.533155 1.600621 1.695425 1.635997 1.602430 1.466342 1.596519
P_12 1.454459 1.454752 1.429075 1.377041 1.297535 1.216900 1.206045 1.230808
P_12 1.110638 1.078838 1.213170 1.150433 1.224478 1.156991 1.153831 1.257155
P_12 1.199796 1.111692 1.083022 0.981712 0.925896 0.855120 0.913274 0.845132
P_12 0.766063 0.717920 0.619659 0.549625 0.554216 0.533145 0.489375 0.474366
P_12 0.482214 0.479429 0.537061 0.616202 0.674586 0.779275 0.755983 0.998095
P_12 0.957940 1.055450 1.159473 1.204776 1.097895 1.186769 1.205465 1.179829
P_12 1.246576 1.082462 1.066121 1.145074 1.053816 1.014868 1.077080 1.020076
P_12 0.970017 1.029864 1.074278 1.016289 1.053112 0.985066 0.989097 0.933832
P_12 0.906066 0.906226 0.885685 0.870582 0.836239 0.691942 0.678038 0.673262
P_12 0.620290 0.533852 0.553126 0.445617 0.480753 0.457416 0.410389 0.428427
P_12 0.437233 0.457702 0.472780 0.525672 0.539303 0.559807 0.642237 0.699993
P_12 0.663543 0.815832 0.828478 1.035507 0.993128 1.069467 1.054365 0.953210
P_12 1.114318 1.030298 0.976198 1.004592 0.970696 0.977277 0.916931 0.944915
P_12 0.825660 0.864319 0.953573 0.944393 0.949756 1.004197 0.982033 0.941298
P_12 0.980540 1.009008 0.851505 0.833365 0.838222 0.736111 0.756395 0.716766

P_13 0.549159 0.509864 0.480946 0.438355 0.387166 0.383009 0.367698 0.400917
P_13 0.459687 0.542168 0.591578 0.748446 0.792129 0.832296 0.977813 1.068683
P_13 1.164186 1.356414 1.258431 1.370182 1.419317 1.388095 1.448170 1.351162
P_13 1.226104 1.299379 1.230708 1.142447 1.094973 1.038926 1.025724 1.043168
P_13 0.891956 1.039984 1.101259 0.977151 1.124755 1.152756 1.303834 1.250054
P_13 1.194670 1.218462 1.310280 1.132605 0.990890 0.923023 0.920928 0.854328
P_13 0.757306 0.663319 0.558836 0.481181 0.506503 0.387258 0.472446 0.495800
P_13 0.563397 0.641723 0.726010 0.766529 0.800575 0.993347 1.119180 1.057304
P_13 1.366139 1.250986 1.402067 1.405266 1.385535 1.433113 1.490522 1.383146
P_13 1.404024 1.278821 1.217694 1.180926 1.101742 1.048459 1.053605 1.134451
P_13 1.107426 1.123887 1.121675 1.162959 1.140135 1.351623 1.263828 1.339589
P_13 1.289373 1.359088 1.184024 1.196957 1.127829 1.082942 0.959048 0.839147
P_13 0.737729 0.616619 0.552301 0.514020 0.451657 0.436522 0.445592 0.473476
P_13 0.514045 0.587384 0.652111 0.798886 0.875720 0.932791 1.126337 1.150628
P_13 1.189559 1.382038 1.464927 1.360281 1.298295 1.432477 1.469579 1.311713
P_13 1.309903 1.180911 1.289427 1.271005 1.050692 1.207907 1.154073 1.098012
P_13 1.073398 1.195032 1.067012 1.156386 1.209449 1.088379 1.108885 1.184421
P_13 1.179104 1.283939 1.133689 1.135692 1.060066 1.091360 0.963674 0.899691
P_13 0.792684 0.653725 0.565861 0.530523 0.477861 0.431239 0.469429 0.522878
P_13 0.548950 0.632355 0.701557 0.836780 1.039613 1.101700 1.267107 1.345241
P_13 1.212041 1.469361 1.375843 1.570180 1.433944 1.598750 1.466548 1.504069
P_13 1.422171 1.346053 1.224336 1.335122 1.180347 1.223118 1.209657 1.279891
P_13 1.226653 1.342810 1.231890 1.396600 1.431389 1.393560 1.611696 1.447931
P_13 1.367080 1.513299 1.408176 1.314400 1.350834 1.180622 1.014080 1.001065
P_13 0.879052 0.785749 0.729520 0.591556 0.551343 0.517471 0.540871 0.545119
P_13 0.660074 0.738450 0.852614 0.916489 1.224669 1.287666 1.299736 1.569128
P_13 1.611238 1.761970 1.644916 1.733542 1.534067 1.511178 1.762813 1.510375
P_13 1.519513 1.415092 1.410095 1.292204 1.272765 1.352345 1.172826 1.252453
P_13 1.154125 1.248487 1.378292 1.125523 1.149518 1.178180 1.234784 1.118964
P_13 1.270337 1.132152 1.111678 1.144763 1.017623 0.993701 0.900025 0.829582
P_13 0.786503 0.707146 0.630835 0.580236 0.476819 0.493157 0.466511 0.470148
P_13 0.460710 0.505933 0.572542 0.563469 0.660070 0.774054 0.825401 0.919892
P_13 0.992198 1.031076 1.130507 1.201437 1.145888 1.256181 1.207634 1.199419
P_13 1.155305 1.121655 1.142869 1.107718 1.080570 1.086592 0.999606 1.137072
P_13 1.029164 1.012060 1.077593 1.091987 1.068262 1.055478 1.070792 0.948575
P_13 0.886848 0.867687 0.826119 0.924066 0.821946 0.692581 0.671493 0.688185
P_13 0.568326 0.525119 0.541813 0.488560 0.440697 0.446827 0.417907 0.438207
P_13 0.409436 0.427556 0.440927 0.466968 0.540650 0.541503 0.581543 0.734112
P_13 0.763685 0.768101 0.811341 0.899689 1.016929 1.018634 1.019444 1.033996
P_13 1.015180 1.011490 1.019257 0.985581 0.906223 0.998346 0.948911 0.868147
P_13 0.889225 0.856358 0.898475 0.936475 0.943070 0.881887 0.915760 0.987083
P_13 1.065943 0.944903 0.849951 0.933730 0.847438 0.757081 0.700988 0.617008

P_14 0.554487 0.570809 0.473725 0.477046 0.396497 0.414356 0.409258 0.440169
P_14 0.472584 0.522820 0.593944 0.644652 0.729822 0.886678 1.022105 1.115677
P_14 1.149197 1.200906 1.195747 1.256704 1.336254 1.348406 1.315985 1.222477
P_14 1.248576 1.259435 1.185254 1.084492 1.030441 0.973207 0.991623 0.942777
P_14 0.981334 0.909553 0.976698 1.022377 1.096869 1.188579 1.220233 1.246854
P_14 1.151965 1.303617 1.189268 1.132925 1.071615 1.146802 0.984802 0.828311
P_14 0.768814 0.694487 0.604931 0.552406 0.514376 0.488042 0.480495 0.493779
P_14 0.535309 0.617590 0.658603 0.815718 0.857133 1.060367 1.070265 1.189239
P_14 1.193759 1.296674 1.419445 1.407453 1.480016 1.244541 1.431730 1.412217
P_14 1.383733 1.219174 1.202472 1.139836 1.087774 1.015110 1.029840 1.020108
P_14 1.147013 1.151536 1.133209 1.246515 1.206626 1.149476 1.327189 1.360086
P_14 1.347971 1.231054 1.293531 1.288552 1.069420 1.073087 0.994152 0.802537
P_14 0.783427 0.708400 0.552871 0.558425 0.509086 0.480403 0.490180 0.542673
P_14 0.531883 0.580346 0.660433 0.785120 0.899978 0.903857 1.053477 1.207708
P_14 1.189351 1.184788 1.360277 1.326975 1.502138 1.233320 1.331935 1.205720
P_14 1.323591 1.203654 1.258919 1.217853 1.223553 1.089929 1.136256 1.074787
P_14 1.191349 1.158509 1.138352 1.143688 1.208661 1.224601 1.290669 1.166617
P_14 1.273289 1.215611 1.304054 1.233678 1.079143 1.081757 0.854315 0.784468
P_14 0.826040 0.722892 0.612856 0.569076 0.535545 0.525128 0.503702 0.515335
P_14 0.620153 0.660194 0.789233 0.854441 1.014120 1.063138 1.087438 1.299538
P_14 1.451654 1.410103 1.473911 1.422341 1.545295 1.610872 1.591067 1.481894
P_14 1.387230 1.379910 1.218762 1.223367 1.142400 1.304720 1.344286 1.255207
P_14 1.273805 1.330020 1.329999 1.309958 1.347925 1.479095 1.466303 1.492880
P_14 1.546578 1.361606 1.448477 1.407723 1.264656 1.301026 1.091439 0.940084
P_14 0.928778 0.768521 0.702843 0.605448 0.556992 0.591547 0.595966 0.603275
P_14 0.621468 0.717972 0.852403 0.986003 1.176742 1.225621 1.394429 1.431872
P_14 1.488855 1.609469 1.598693 1.629805 1.579333 1.677051 1.484618 1.471310
P_14 1.408977 1.401440 1.426935 1.286954 1.189444 1.165425 1.173978 1.223143
P_14 1.241913 1.221529 1.225930 1.239260 1.258210 1.182331 1.207857 1.208230
P_14 1.207392 1.153444 1.090284 1.095633 1.158102 0.942805 0.948099 0.813305
P_14 0.758231 0.765125 0.672687 0.594775 0.511551 0.540727 0.515500 0.485593
P_14 0.530811 0.548717 0.618124 0.614468 0.661630 0.748974 0.829967 0.925932
P_14 0.986655 1.048805 1.048117 1.040142 1.226211 1.142691 1.056990 1.112045
P_14 1.138721 0.953143 1.107217 1.118308 0.996700 1.016755 1.021444 1.132539
P_14 1.072440 1.087622 1.055708 1.014957 0.943051 1.013257 0.947614 1.024599
P_14 1.017798 0.899454 0.918988 0.897977 0.763966 0.788261 0.690340 0.649058
P_14 0.678665 0.595937 0.542825 0.490533 0.480480 0.478267 0.474876 0.396567
P_14 0.430247 0.442472 0.456509 0.427126 0.513252 0.573561 0.665612 0.728734
P_14 0.751617 0.807641 0.820297 0.959391 0.926341 0.899959 0.927672 1.020332
P_14 1.051711 1.025678 1.077730 0.938679 0.937764 0.907821 0.929406 0.873412
P_14 0.927914 0.935831 0.902466 1.016047 0.880753 0.975639 0.957601 1.002784
P_14 1.004861 0.963375 1.043515 0.872375 0.726636 0.787822 0.743325 0.711652

P_15 0.645634 0.542962 0.513226 0.468248 0.394165 0.416013 0.407273 0.494079
P_15 0.509054 0.595054 0.618099 0.668506 0.724015 0.834252 0.900050 1.016187
P_15 1.120477 1.245399 1.230734 1.208561 1.370827 1.350916 1.307252 1.249474
P_15 1.137091 1.168170 1.140614 1.150111 0.977067 1.015238 0.999799 1.062290
P_15 0.931774 0.980710 0.964415 1.050383 1.114988 1.086067 1.108284 1.135222
P_15 1.185007 1.143842 1.196692 1.096468 1.061538 1.096986 0.914729 0.936323
P_15 0.801834 0.707808 0.615489 0.620145 0.495073 0.511720 0.505004 0.531229
P_15 0.547342 0.648498 0.808406 0.777824 0.937514 0.940196 1.017524 1.167339
P_15 1.284909 1.248325 1.380950 1.511785 1.254426 1.437766 1.522205 1.423735
P_15 1.388589 1.236382 1.250419 1.160219 1.098291 1.179626 1.133871 1.038575
P_15 1.122169 1.180524 1.128168 1.249159 1.286873 1.261154 1.168998 1.288622
P_15 1.229055 1.180154 1.233732 1.104807 1.192097 1.011121 0.922299 0.807508
P_15 0.693138 0.662294 0.603277 0.562478 0.524108 0.502518 0.540536 0.567386
P_15 0.564840 0.689043 0.708531 0.915396 0.934739 1.037645 1.065822 1.061809
P_15 1.154066 1.294791 1.362683 1.275530 1.385995 1.352203 1.405202 1.198754
P_15 1.216603 1.268340 1.337043 1.229867 1.201795 1.311315 1.173568 1.096221
P_15 1.036346 1.140587 1.121542 1.109987 1.171814 1.128144 1.070392 1.291688
P_15 1.220929 1.249240 1.175155 1.071148 1.135988 1.075497 1.116838 0.900792
P_15 0.778787 0.661963 0.727299 0.620433 0.564111 0.528371 0.588838 0.575924
P_15 0.676721 0.684097 0.778851 0.898299 1.016647 1.140603 1.214601 1.341188
P_15 1.376856 1.447063 1.421539 1.444264 1.459653 1.355327 1.449557 1.284414
P_15 1.392652 1.401530 1.347071 1.306784 1.098711 1.154477 1.287834 1.324524
P_15 1.270925 1.274105 1.372211 1.255032 1.420793 1.216293 1.343255 1.456116
P_15 1.201644 1.349033 1.327793 1.233357 1.165373 1.151765 1.009026 0.951419
P_15 0.874254 0.721208 0.727384 0.673148 0.656922 0.614415 0.580757 0.637080
P_15 0.683447 0.757201 0.834178 0.894982 1.071262 1.205823 1.404048 1.403630
P_15 1.457651 1.615364 1.769739 1.647347 1.548410 1.540686 1.603490 1.517957
P_15 1.327326 1.446324 1.371322 1.212772 1.252503 1.187861 1.165651 1.321156
P_15 1.197660 1.250155 1.183363 1.281302 1.268065 1.254092 1.269268 1.204451
P_15 1.104942 1.052312 0.981349 1.063595 0.956370 0.958789 0.879202 0.870482
P_15 0.753267 0.653516 0.671709 0.599073 0.550582 0.556872 0.487579 0.505932
P_15 0.589292 0.585831 0.576015 0.632232 0.760524 0.765130 0.841443 0.895008
P_15 0.892248 0.953583 1.100479 1.188503 1.088961 1.036148 1.202227 1.149228
P_15 1.128060 1.106770 1.007488 1.047286 1.083051 1.020032 0.981526 1.023587
P_15 0.976242 1.041376 1.002336 1.041501 0.970201 1.046751 1.017589 0.860394
P_15 0.958654 0.901909 0.890750 0.865197 0.757048 0.701456 0.678914 0.639617
P_15 0.609972 0.528547 0.570278 0.512726 0.510468 0.490263 0.483198 0.473378
P_15 0.482387 0.448333 0.502081 0.505609 0.492689 0.649179 0.650122 0.755360
P_15 0.770819 0.852467 0.881953 0.946112 0.909141 1.030206 0.986930 1.022396
P_15 1.018153 1.058054 1.086642 1.027990 0.932268 0.895872 0.892331 0.946882
P_15 0.839245 0.877227 0.900383 0.937949 0.904054 0.927878 0.972535 0.962470
P_15 1.030024 0.932241 0.926334 0.925967 0.831514 0.832303 0.770718 0.668295

P_16 0.550707 0.550941 0.484939 0.383771 0.348203 0.344205 0.353747 0.343471
P_16 0.389363 0.477591 0.551781 0.638220 0.767712 0.911057 0.998224 1.045671
P_16 1.144580 1.180229 1.318055 1.436435 1.522283 1.397323 1.459698 1.354803
P_16 1.408636 1.318234 1.138879 1.117833 1.069968 1.057335 1.050643 1.002179
P_16 0.941780 0.954719 1.029077 1.019256 1.095887 1.206721 1.170398 1.259441
P_16 1.307719 1.223608 1.261592 1.100432 1.117671 1.041843 0.852050 0.829976
P_16 0.807571 0.658808 0.581202 0.479123 0.429401 0.430860 0.372798 0.474474
P_16 0.477914 0.580742 0.666342 0.748687 0.871932 1.017880 1.132168 1.304485
P_16 1.401334 1.456319 1.623902 1.456755 1.355983 1.499262 1.522813 1.504737
P_16 1.329587 1.328493 1.363853 1.279933 1.112254 1.114431 1.240153 1.100228
P_16 1.085351 1.187375 1.176523 1.173593 1.250153 1.234306 1.285180 1.281801
P_16 1.194147 1.301634 1.204687 1.210837 1.152113 1.017624 0.906576 0.801854
P_16 0.612496 0.589984 0.473309 0.462489 0.410090 0.372400 0.400029 0.394401
P_16 0.458650 0.539432 0.665396 0.770792 0.771622 0.969673 1.089467 1.157436
P_16 1.182623 1.251467 1.345125 1.348883 1.455963 1.383754 1.332516 1.333280
P_16 1.440803 1.280368 1.249017 1.136152 1.159703 1.167963 1.037359 1.098854
P_16 1.154220 1.158922 1.134460 1.139589 1.184640 1.137569 1.155932 1.344633
P_16 1.327628 1.257783 1.159193 1.190609 1.102130 0.948593 0.921282 0.862407
P_16 0.720538 0.578486 0.546542 0.477942 0.445128 0.408887 0.434021 0.450573
P_16 0.542457 0.580225 0.697654 0.818602 0.926312 1.051587 1.235604 1.225911
P_16 1.222052 1.454356 1.526426 1.628132 1.516665 1.556886 1.560812 1.431241
P_16 1.401058 1.475073 1.499395 1.349941 1.369985 1.258639 1.258826 1.277404
P_16 1.267102 1.260182 1.267098 1.267760 1.400736 1.459672 1.351624 1.463691
P_16 1.332590 1.547332 1.419798 1.207448 1.330038 1.175863 1.001280 0.873260
P_16 0.841161 0.678212 0.600776 0.507819 0.521143 0.470503 0.463595 0.533165
P_16 0.574565 0.697505 0.866399 0.940668 1.193761 1.328383 1.406112 1.542711
P_16 1.691558 1.732358 1.777248 1.753184 1.582958 1.660806 1.676021 1.598159
P_16 1.528151 1.563267 1.491879 1.365012 1.458839 1.262540 1.242220 1.299893
P_16 1.309256 1.246352 1.240903 1.194767 1.102330 1.249440 1.240442 1.255056
P_16 1.255557 1.117067 1.132634 1.097424 1.029340 0.886952 0.880242 0.789558
P_16 0.784590 0.650182 0.616997 0.586768 0.542265 0.478574 0.448842 0.408851
P_16 0.444618 0.432710 0.530989 0.599931 0.605316 0.739428 0.873962 0.911162
P_16 0.908203 1.024260 1.158098 1.197412 1.271006 1.315927 1.085999 1.157960
P_16 1.176856 1.261404 1.079928 1.049240 1.082924 0.979325 1.163743 1.057711
P_16 1.063209 1.028601 1.021170 1.062730 1.036546 1.066356 0.971055 0.939222
P_16 0.968957 0.950118 0.838426 0.857461 0.776446 0.707796 0.729724 0.619427
P_16 0.605314 0.532506 0.511205 0.446206 0.415341 0.392929 0.375556 0.379454
P_16 0.366284 0.373524 0.401050 0.451914 0.491044 0.543553 0.624214 0.677990
P_16 0.675917 0.833793 0.831610 1.035234 1.032040 1.145333 1.101847 1.036435
P_16 1.109033 1.109969 1.075223 1.046250 0.911472 0.910528 0.921153 0.958826
P_16 0.838567 0.967013 0.967999 0.943347 0.986291 0.950927 0.975870 0.922289
P_16 1.006198 0.847752 0.889193 0.842017 0.813430 0.853409 0.753372 0.655841

P_17 0.595860 0.553170 0.472154 0.445001 0.378741 0.423748 0.399859 0.446915
P_17 0.444228 0.560237 0.650752 0.753436 0.793762 0.944136 1.045888 1.170988
P_17 1.222576 1.271975 1.432246 1.389937 1.362015 1.459658 1.338074 1.375593
P_17 1.360154 1.240054 1.257146 1.123599 1.052067 1.040967 0.972393 0.967047
P_17 1.026199 1.023599 1.039246 1.083875 1.028159 1.086038 1.147014 1.254563
P_17 1.141123 1.220558 1.184247 1.162027 1.025465 1.158210 0.881731 0.788034
P_17 0.720341 0.674084 0.593442 0.531386 0.486096 0.466546 0.498635 0.533623
P_17 0.510620 0.650385 0.783344 0.802606 0.945490 1.033966 1.112086 1.274125
P_17 1.222126 1.394570 1.386510 1.422319 1.408445 1.477128 1.365450 1.249178
P_17 1.327962 1.260894 1.287981 1.071623 1.185887 1.030305 1.024640 1.066490
P_17 1.114762 1.072783 1.148635 1.134626 1.203940 1.189758 1.222100 1.248877
P_17 1.219599 1.229892 1.231980 1.174427 1.145264 0.995294 0.868919 0.808672
P_17 0.732580 0.617592 0.548282 0.555663 0.453443 0.429212 0.451485 0.524709
P_17 0.576281 0.609499 0.764874 0.781612 0.841654 0.934495 1.100268 1.113290
P_17 1.196138 1.288305 1.218978 1.279404 1.299488 1.284355 1.342699 1.375458
P_17 1.339087 1.216923 1.300786 1.214215 1.197525 1.015684 1.054625 1.120600
P_17 1.058028 1.206516 1.061853 1.062262 1.192258 1.193838 1.173329 1.226864
P_17 1.320504 1.180122 1.139356 1.162449 1.110881 1.019137 1.008810 0.893352
P_17 0.736364 0.674546 0.648480 0.532208 0.536585 0.505916 0.502629 0.579450
P_17 0.632830 0.687332 0.853811 0.913578 0.985072 1.118928 1.244047 1.361142
P_17 1.241107 1.317147 1.565069 1.435346 1.536361 1.534490 1.386723 1.415151
P_17 1.380612 1.378282 1.328899 1.286523 1.184817 1.252403 1.289884 1.401732
P_17 1.287643 1.321485 1.265305 1.300681 1.327250 1.302603 1.470730 1.439605
P_17 1.492949 1.465135 1.380473 1.311500 1.255702 1.184229 0.956541 0.878407
P_17 0.849099 0.702902 0.676986 0.624772 0.544964 0.545628 0.508495 0.607388
P_17 0.676886 0.838015 0.921745 1.020413 1.181700 1.300062 1.243697 1.446630
P_17 1.660278 1.704306 1.692499 1.815132 1.727863 1.810499 1.523562 1.570083
P_17 1.463044 1.411320 1.338010 1.210663 1.208554 1.334284 1.171973 1.219151
P_17 1.221935 1.152061 1.214729 1.185347 1.191048 1.130133 1.240902 1.290613
P_17 1.220736 1.173398 1.145521 1.160579 0.941333 0.896204 0.894488 0.834193
P_17 0.777719 0.726678 0.575592 0.542012 0.513330 0.455919 0.478408 0.477213
P_17 0.490361 0.535787 0.457144 0.688974 0.632158 0.750677 0.930372 0.948485
P_17 0.986358 1.050630 1.092359 1.172980 1.149759 1.113024 1.170104 1.162845
P_17 1.110065 1.089147 1.065807 1.084341 1.011045 1.044780 1.062069 0.962365
P_17 0.965977 0.972290 1.026058 1.043189 1.125561 0.981256 1.018787 1.034628
P_17 0.959724 1.008905 0.931790 0.809282 0.818491 0.772896 0.719270 0.667509
P_17 0.634878 0.505571 0.479958 0.476812 0.468707 0.451724 0.452007 0.415168
P_17 0.448996 0.421747 0.518724 0.527094 0.594042 0.616428 0.670305 0.789074
P_17 0.771810 0.880085 0.927062 0.989252 0.932200 1.046640 1.056773 1.100853
P_17 0.964225 1.070390 1.074211 1.002243 1.035494 0.888304 0.898664 0.845501
P_17 0.990799 0.855955 0.992002 0.919490 0.881711 0.998027 1.118268 1.013613
P_17 1.031387 0.983711 0.930834 0.837726 0.835491 0.871674 0.737600 0.634518

P_18 0.611019 0.474705 0.452170 0.424570 0.394200 0.402602 0.380284 0.398109
P_18 0.464472 0.491378 0.583543 0.723094 0.776020 0.804700 1.078479 1.130993
P_18 1.218495 1.144351 1.278131 1.244768 1.341004 1.355699 1.239736 1.280179
P_18 1.283011 1.211077 1.139250 1.147760 1.094623 0.993104 0.940047 1.050589
P_18 0.906693 1.011235 1.032212 1.000268 1.078552 1.067667 1.210396 1.276344
P_18 1.158113 1.094457 1.245513 1.179160 1.136076 0.972511 1.035133 0.879843
P_18 0.749307 0.623723 0.633584 0.535031 0.466780 0.468184 0.495356 0.532945
P_18 0.500127 0.611810 0.662041 0.749490 0.953215 0.883624 1.132991 1.171922
P_18 1.224443 1.361722 1.381197 1.340354 1.551007 1.511416 1.329710 1.319820
P_18 1.205942 1.256902 1.206518 1.139212 1.113543 1.099385 1.067279 1.081642
P_18 1.012142 1.103663 1.091295 1.127152 1.126418 1.273034 1.222159 1.358252
P_18 1.204176 1.206062 1.280356 1.162785 1.081789 1.085702 0.936894 0.821098
P_18 0.775514 0.693092 0.528798 0.504849 0.471313 0.409193 0.434638 0.500848
P_18 0.566172 0.577245 0.667859 0.847138 0.904039 0.959540 1.172369 1.214565
P_18 1.350150 1.269180 1.296483 1.299565 1.321493 1.323645 1.409726 1.254794
P_18 1.192016 1.213588 1.230363 1.308560 1.090311 1.230918 1.101215 1.153544
P_18 1.129263 1.031526 1.166503 1.138913 1.192409 1.226355 1.240534 1.287141
P_18 1.203227 1.396293 1.210082 1.164586 1.210880 1.073831 1.085655 0.836052
P_18 0.795683 0.788911 0.596246 0.501958 0.502469 0.452203 0.441288 0.579749
P_18 0.532529 0.684365 0.811514 0.955954 1.035688 1.033861 1.172887 1.321926
P_18 1.421485 1.494038 1.585346 1.403719 1.510129 1.469613 1.406750 1.459712
P_18 1.491432 1.344827 1.201461 1.192305 1.226120 1.225757 1.239871 1.289183
P_18 1.204415 1.267090 1.334466 1.398575 1.377747 1.442334 1.354316 1.375075
P_18 1.497566 1.467906 1.299000 1.336061 1.283589 1.198788 1.071487 0.940656
P_18 0.823766 0.769214 0.642410 0.602405 0.599325 0.581856 0.476475 0.641145
P_18 0.651865 0.695416 0.893040 0.966128 1.166177 1.258746 1.253128 1.478889
P_18 1.732986 1.716472 1.651200 1.903845 1.839643 1.807149 1.620594 1.451114
P_18 1.532827 1.362253 1.297846 1.279015 1.273689 1.203322 1.164632 1.263538
P_18 1.314643 1.105108 1.113264 1.198664 1.164774 1.269911 1.118268 1.216748
P_18 1.166291 1.222590 1.161738 0.983258 1.071443 1.081570 0.846813 0.886863
P_18 0.791800 0.719802 0.626160 0.568590 0.535962 0.437276 0.481512 0.486364
P_18 0.520637 0.525483 0.571726 0.609522 0.730306 0.720380 0.907788 0.908972
P_18 1.014845 1.006889 1.032611 1.066320 1.124068 1.152231 1.123634 1.207567
P_18 1.188195 1.121519 1.115594 1.051861 0.989695 1.017317 1.012159 1.093775
P_18 1.093368 0.978623 1.112817 1.193232 0.988408 1.080883 0.988991 1.122413
P_18 1.065125 1.036472 1.003050 0.802943 0.867288 0.797950 0.738783 0.723342
P_18 0.577997 0.586397 0.493776 0.486726 0.492041 0.419262 0.425476 0.406528
P_18 0.417357 0.425607 0.450796 0.477786 0.574083 0.588148 0.611138 0.715202
P_18 0.810690 0.778166 0.765643 0.835181 0.949603 0.909632 0.994603 0.946233
P_18 0.992596 0.990303 1.022951 1.004835 0.968747 0.837868 0.877484 0.881823
P_18 0.905979 0.935483 1.000420 1.075273 1.020199 0.993533 0.977968 0.971764
P_18 1.063976 1.084483 0.898821 0.960095 0.918117 0.846641 0.713213 0.604156

P_19 0.612277 0.547171 0.501857 0.441523 0.425588 0.410531 0.428989 0.415425
P_19 0.543068 0.549618 0.661137 0.713618 0.775030 0.867255 1.019580 1.114277
P_19 1.184620 1.329089 1.384813 1.324422 1.359728 1.335322 1.368896 1.297391
P_19 1.280734 1.254234 1.215620 1.077088 1.077595 0.969315 1.034109 0.875516
P_19 0.981634 0.979839 1.022029 1.109684 1.035357 1.127303 1.176567 1.161295
P_19 1.202314 1.294738 1.119059 1.078336 1.104742 1.045052 0.962422 0.746986
P_19 0.741599 0.649055 0.563084 0.598996 0.470576 0.440845 0.496822 0.567954
P_19 0.626543 0.659864 0.712484 0.775746 0.943005 0.959718 1.078413 1.200732
P_19 1.314118 1.412752 1.487137 1.479776 1.459058 1.485682 1.448751 1.375245
P_19 1.236214 1.284289 1.251439 1.227991 1.103800 1.088654 1.119086 1.074050
P_19 1.056168 1.002538 1.088651 1.068052 1.309868 1.202700 1.220281 1.163963
P_19 1.341912 1.413477 1.170198 1.058551 1.027659 0.889883 0.858029 0.792076
P_19 0.645315 0.618411 0.543428 0.468511 0.457277 0.505987 0.539262 0.523009
P_19 0.550826 0.593119 0.740794 0.798059 0.910230 1.019859 1.047010 1.210700
P_19 1.229668 1.357913 1.406326 1.343114 1.446750 1.431921 1.337886 1.294963
P_19 1.310582 1.305885 1.394768 1.233991 1.266880 1.114164 1.102454 1.148550
P_19 1.064538 1.096406 1.205838 1.166985 1.074354 1.137540 1.224627 1.249941
P_19 1.210278 1.172817 1.263265 1.170529 1.047668 1.051099 0.989621 0.871769
P_19 0.774064 0.596563 0.710039 0.598320 0.566381 0.548795 0.542576 0.522240
P_19 0.642906 0.697151 0.729717 0.858297 0.931499 1.224389 1.190871 1.247684
P_19 1.438789 1.535457 1.520347 1.455813 1.498140 1.683555 1.443711 1.417057
P_19 1.275239 1.305358 1.345246 1.326122 1.313165 1.214489 1.172750 1.227058
P_19 1.151733 1.353040 1.148744 1.281912 1.399691 1.263395 1.375538 1.409629
P_19 1.268698 1.381371 1.290565 1.309091 1.274274 1.134832 1.057062 0.956234
P_19 0.843183 0.815962 0.793729 0.605836 0.608491 0.552616 0.548576 0.676364
P_19 0.759469 0.785031 0.928368 1.043046 1.207045 1.323924 1.402290 1.625792
P_19 1.666539 1.783917 1.722409 1.767398 1.703583 1.665232 1.525896 1.452331
P_19 1.457538 1.437056 1.383975 1.392995 1.350524 1.314682 1.254650 1.182890
P_19 1.163580 1.169915 1.193500 1.211322 1.169348 1.184273 1.295395 1.312615
P_19 1.257179 1.148859 1.091655 0.987478 0.975202 0.912704 0.887543 0.758865
P_19 0.834519 0.694080 0.625486 0.619196 0.533063 0.528762 0.456050 0.492846
P_19 0.494564 0.566810 0.638530 0.670041 0.747095 0.795854 0.836455 0.922159
P_19 1.041072 1.015112 1.091192 1.206606 1.123839 1.218277 1.170551 1.116949
P_19 1.100026 1.143027 1.203828 1.160611 1.058649 1.105315 1.101373 1.026430
P_19 0.984414 1.013781 1.034251 1.009425 1.030140 1.008776 0.972298 1.028257
P_19 0.933384 0.854673 0.815684 0.820922 0.690396 0.778363 0.640730 0.601520
P_19 0.571864 0.592246 0.536844 0.491964 0.479428 0.469557 0.460168 0.441852
P_19 0.441070 0.477662 0.508393 0.488744 0.498182 0.631234 0.677522 0.722605
P_19 0.749209 0.843578 0.882599 0.986333 0.941806 0.967317 0.996913 0.968013
P_19 1.020458 1.078916 1.042982 0.936188 0.963838 0.974344 0.911042 0.927667
P_19 0.886469 0.865460 0.987195 0.799527 0.903429 1.011275 1.022229 0.907055
P_19 0.928303 0.931237 0.955096 0.957733 0.894249 0.801114 0.665250 0.693465

P_32 0.602264 0.560209 0.492022 0.428312 0.436528 0.420763 0.397645 0.443058
P_32 0.492544 0.515964 0.606540 0.732313 0.882861 0.830190 0.911460 1.107292
P_32 1.085707 1.158028 1.178100 1.248698 1.319284 1.292037 1.247708 1.288176
P_32 1.191909 1.232407 1.236268 1.136260 0.992547 1.025107 1.017760 0.957127
P_32 0.925028 0.967146 0.987914 1.101066 1.173427 1.163317 1.078592 1.233471
P_32 1.107871 1.064150 1.172138 0.988355 1.071503 1.045571 0.953983 0.837956
P_32 0.697755 0.704924 0.626476 0.524378 0.534125 0.505821 0.516324 0.527185
P_32 0.573477 0.685154 0.734134 0.802954 0.864387 0.926482 1.190254 1.143593
P_32 1.292829 1.364604 1.393755 1.465324 1.426655 1.485581 1.429505 1.399272
P_32 1.274288 1.256134 1.286266 1.080600 1.225902 1.156747 1.175381 1.089903
P_32 1.052671 1.000509 1.028921 1.212837 1.219214 1.150877 1.150115 1.137311
P_32 1.384693 1.095460 1.226805 1.088482 1.144481 0.874173 1.004597 0.819950
P_32 0.722786 0.658660 0.592342 0.567141 0.462079 0.508016 0.488805 0.495262
P_32 0.583220 0.622967 0.730101 0.829473 0.916994 1.017514 1.091024 1.161812
P_32 1.213947 1.312934 1.479138 1.348285 1.430593 1.308269 1.407457 1.433818
P_32 1.364002 1.240988 1.267988 1.247526 1.200323 1.111700 1.022641 1.135119
P_32 1.067245 1.069094 1.197823 1.084750 1.166980 1.065572 1.202043 1.128582
P_32 1.170197 1.326151 1.244877 1.148626 1.110003 1.015123 0.897734 0.918958
P_32 0.836609 0.748898 0.713262 0.551798 0.534054 0.528895 0.524634 0.580653
P_32 0.589436 0.713622 0.774809 0.886344 1.030661 1.072502 1.223340 1.366654
P_32 1.336616 1.447111 1.430993 1.438418 1.588850 1.554077 1.578103 1.439016
P_32 1.445825 1.430125 1.444833 1.259554 1.292910 1.319808 1.346930 1.316511
P_32 1.206132 1.341182 1.207919 1.228057 1.276471 1.467035 1.358563 1.362990
P_32 1.357675 1.428330 1.229919 1.304364 1.154684 1.245937 1.000312 0.959939
P_32 0.924695 0.840268 0.772888 0.636060 0.623107 0.621268 0.498188 0.654509
P_32 0.718455 0.769565 0.995737 1.044980 1.164383 1.225724 1.397221 1.487144
P_32 1.562233 1.624589 1.743073 1.763113 1.908233 1.659492 1.721070 1.566248
P_32 1.502232 1.384108 1.344621 1.381488 1.291141 1.315159 1.230524 1.239067
P_32 1.139773 1.128871 1.198374 1.129032 1.143466 1.166910 1.290326 1.176866
P_32 1.166789 1.148462 0.985512 1.049667 1.079269 0.920549 0.843695 0.950883
P_32 0.820951 0.682160 0.697866 0.570435 0.574431 0.540292 0.515840 0.533610
P_32 0.487306 0.585314 0.538402 0.638531 0.653463 0.732253 0.827108 0.956721
P_32 0.842547 1.089592 0.997019 1.073396 1.229805 1.263028 1.167236 0.981233
P_32 1.189864 1.104225 1.081968 1.079940 1.119753 0.921519 1.061585 1.108880
P_32 1.022498 1.007657 1.025886 0.984656 0.975647 1.056777 0.931713 0.927263
P_32 1.000255 0.854430 0.870304 0.860603 0.764016 0.746162 0.696830 0.641983
P_32 0.586284 0.613249 0.555535 0.501371 0.498591 0.458046 0.448561 0.489692
P_32 0.451109 0.445388 0.486966 0.547165 0.545574 0.571116 0.648111 0.732042
P_32 0.731942 0.803149 0.869296 1.019590 0.959123 0.973989 1.053602 1.051692
P_32 0.955155 1.087278 1.044405 0.917557 0.897928 0.883075 0.904997 0.868066
P_32 0.830498 0.888760 0.818088 0.953310 0.923530 1.009190 0.899201 0.961593
P_32 0.906581 0.968589 0.871478 0.947578 0.841397 0.822195 0.712666 0.673069

P_30 0.603866 0.539597 0.482580 0.401846 0.365254 0.352737 0.369033 0.393689
P_30 0.448310 0.432986 0.601757 0.627775 0.755303 0.802923 1.004604 1.018142
P_30 1.106256 1.247883 1.325079 1.272643 1.298777 1.346309 1.342143 1.335354
P_30 1.267683 1.190587 1.190757 1.106291 1.120927 0.967393 0.957243 1.076300
P_30 0.943596 1.018889 1.093218 1.070852 1.050942 1.138236 1.208226 1.175822
P_30 1.135611 1.232449 1.160049 1.201953 1.132461 1.104594 0.957540 0.851829
P_30 0.760714 0.641548 0.535000 0.461366 0.457701 0.442111 0.454014 0.454034
P_30 0.501209 0.527158 0.631916 0.668324 0.805277 0.951569 0.975832 1.066154
P_30 1.172624 1.275676 1.351283 1.387911 1.503602 1.544574 1.492771 1.224982
P_30 1.401949 1.277570 1.262503 1.132895 1.154296 1.092783 1.039775 1.166553
P_30 1.131967 1.080248 1.208028 1.227922 1.160969 1.290685 1.354950 1.335917
P_30 1.342315 1.223121 1.148587 1.262645 1.134432 1.056561 0.917065 0.839951
P_30 0.681083 0.637366 0.578066 0.470033 0.484223 0.415242 0.408873 0.440422
P_30 0.508075 0.532940 0.642895 0.740094 0.836195 0.901096 1.043288 1.045254
P_30 1.150984 1.284790 1.254081 1.352138 1.307496 1.230576 1.388706 1.354949
P_30 1.224023 1.282823 1.270459 1.142088 1.169410 1.115847 1.073626 1.253575
P_30 1.138633 1.056180 1.065897 1.248739 1.354900 1.125012 1.182399 1.316254
P_30 1.335417 1.396907 1.204063 1.156298 1.217373 1.014083 0.964251 0.812988
P_30 0.744488 0.665554 0.542095 0.552424 0.472392 0.422053 0.440409 0.546377
P_30 0.508428 0.640642 0.712511 0.844373 0.880745 1.138741 1.127560 1.321838
P_30 1.475172 1.462618 1.445014 1.475755 1.537935 1.629517 1.605597 1.522252
P_30 1.417670 1.399820 1.241767 1.315701 1.198960 1.312435 1.174593 1.305598
P_30 1.237335 1.247201 1.302191 1.285642 1.459205 1.403852 1.363051 1.568326
P_30 1.447049 1.315172 1.415850 1.391765 1.305299 1.130963 0.999422 0.929139
P_30 0.906348 0.740970 0.605345 0.590472 0.544118 0.511674 0.556804 0.514548
P_30 0.596988 0.719548 0.792381 0.958105 1.114823 1.328316 1.381651 1.464024
P_30 1.638096 1.680366 1.721157 1.791296 1.716445 1.749585 1.717504 1.667002
P_30 1.488656 1.500947 1.369788 1.302897 1.335681 1.242015 1.280449 1.232460
P_30 1.241483 1.202240 1.230826 1.314332 1.286989 1.271274 1.268255 1.200182
P_30 1.186231 1.074385 1.139671 1.088224 1.004120 1.047363 0.862004 0.837108
P_30 0.749238 0.707498 0.604984 0.569127 0.522567 0.469801 0.471710 0.421847
P_30 0.466679 0.501400 0.489043 0.606044 0.607743 0.753286 0.769914 0.940232
P_30 0.949355 1.079639 1.106661 1.150041 1.192014 1.224360 1.136444 1.206882
P_30 1.223663 1.180889 1.103458 1.148081 1.084913 1.070859 1.052908 0.939519
P_30 1.004214 1.044544 0.951196 1.170725 1.085190 0.994551 1.020003 0.970035
P_30 1.057474 0.995009 1.016887 0.870360 0.885969 0.764024 0.749506 0.666485
P_30 0.624430 0.609520 0.557962 0.516080 0.489277 0.471958 0.431817 0.420320
P_30 0.406800 0.425048 0.467284 0.447341 0.527482 0.534533 0.635769 0.658557
P_30 0.728408 0.817470 0.910532 0.943148 0.941772 1.024393 1.045722 1.132102
P_30 1.017151 1.013581 1.060517 0.995214 0.997547 1.031880 0.924373 0.945292
P_30 0.881602 0.961603 0.932026 0.895696 1.057011 0.927663 1.006735 1.041533
P_30 1.067317 1.027629 0.920025 0.925786 0.854209 0.789838 0.768260 0.674428

P_31 0.643318 0.532870 0.472030 0.414245 0.433017 0.444230 0.410093 0.439581
P_31 0.451467 0.542309 0.619467 0.708674 0.712631 0.818391 1.003163 1.076365
P_31 1.039830 1.184854 1.290742 1.212381 1.296367 1.273451 1.216709 1.297555
P_31 1.252009 1.188216 1.216815 1.091034 1.140828 1.002166 1.099171 0.902352
P_31 0.928899 1.009224 1.014263 1.005715 1.208797 1.111657 1.236568 1.194394
P_31 1.184872 1.209055 1.197335 1.234918 1.115683 1.009049 0.957974 0.857576
P_31 0.705259 0.677723 0.620592 0.539925 0.517436 0.517725 0.524057 0.504783
P_31 0.548326 0.616494 0.622165 0.761574 0.892305 0.911451 1.016833 1.034164
P_31 1.300508 1.272154 1.299693 1.392183 1.409969 1.552351 1.334592 1.326458
P_31 1.288822 1.279052 1.367588 1.125362 1.248986 1.187877 1.210969 1.123340
P_31 1.052197 1.135057 1.140101 1.232994 1.243049 1.209592 1.246361 1.139215
P_31 1.145965 1.133088 1.244438 1.151034 1.076580 1.066267 0.900736 0.832312
P_31 0.730987 0.611516 0.561419 0.478751 0.470304 0.462493 0.466854 0.539052
P_31 0.494155 0.588403 0.681120 0.760738 0.882323 0.982902 0.977972 1.065058
P_31 1.168130 1.189205 1.356730 1.337802 1.405629 1.459682 1.341476 1.410749
P_31 1.372412 1.260670 1.253255 1.207826 1.146815 1.189070 1.136613 1.138628
P_31 1.127882 1.201006 1.085584 1.190819 1.133460 1.161735 1.264040 1.192000
P_31 1.404681 1.189012 1.309747 1.215503 1.119976 1.032148 0.980532 0.825783
P_31 0.739173 0.720402 0.590558 0.556452 0.517783 0.476492 0.496125 0.539388
P_31 0.594844 0.648943 0.708970 0.856501 0.882220 1.073120 1.229965 1.344676
P_31 1.251005 1.350340 1.496798 1.505176 1.481640 1.359579 1.443657 1.443883
P_31 1.435404 1.251865 1.277868 1.276118 1.362391 1.335493 1.245971 1.257123
P_31 1.321291 1.244206 1.205784 1.410547 1.440605 1.425862 1.334492 1.524295
P_31 1.542578 1.339540 1.407849 1.295666 1.191820 1.257137 1.087112 1.002082
P_31 0.906393 0.801931 0.714735 0.658589 0.613685 0.593516 0.585322 0.604501
P_31 0.660412 0.759045 0.766916 0.989888 1.101145 1.246340 1.305622 1.585700
P_31 1.622874 1.578323 1.647416 1.601286 1.593243 1.625390 1.566761 1.568025
P_31 1.601098 1.438106 1.325800 1.312404 1.255251 1.239157 1.349698 1.187394
P_31 1.264321 1.253340 1.251309 1.282176 1.227332 1.191590 1.164015 1.218749
P_31 1.150695 1.090590 1.197508 1.052828 1.016948 0.908148 0.961119 0.944140
P_31 0.767766 0.744231 0.640898 0.601585 0.494934 0.526348 0.480803 0.497173
P_31 0.491315 0.474161 0.546210 0.596717 0.681623 0.790516 0.846422 0.878390
P_31 0.886943 1.026047 0.961410 1.141647 1.106040 1.243350 1.185989 1.192339
P_31 1.032070 1.136737 1.123477 0.952588 1.049954 1.040652 0.995679 1.015882
P_31 0.921412 1.010287 1.047014 1.047316 1.004515 0.961997 0.872870 0.979395
P_31 0.869777 0.892456 0.874867 0.880081 0.800666 0.767260 0.675756 0.677605
P_31 0.649159 0.590494 0.522897 0.487301 0.465967 0.482805 0.427201 0.447925
P_31 0.442338 0.422042 0.441383 0.493789 0.485487 0.553201 0.591150 0.683744
P_31 0.699416 0.819225 0.848702 0.816702 1.058266 1.019602 0.997313 1.114174
P_31 1.038067 0.948688 1.079364 1.027633 0.999201 0.950718 1.006510 0.895819
P_31 0.919169 0.890985 0.914207 0.984294 0.966299 1.025659 0.890511 1.063969
P_31 0.993276 0.981803 0.959379 0.935658 0.822770 0.857728 0.712691 0.698514

P_8 0.616993 0.481843 0.427993 0.378559 0.366917 0.370189 0.362495 0.368137
P_8 0.386973 0.501790 0.565865 0.665570 0.755879 0.823420 0.910090 1.045491
P_8 1.052421 1.145417 1.291909 1.155471 1.350870 1.367770 1.409021 1.223892
P_8 1.379654 1.237588 1.234084 1.136742 1.016787 0.968452 1.004946 0.981882
P_8 0.944197 0.970636 1.048412 1.099944 1.223857 1.153567 1.089411 1.158381
P_8 1.207075 1.254951 1.157859 1.151709 1.088516 0.991837 0.922431 0.786587
P_8 0.696400 0.629648 0.503676 0.526111 0.448667 0.392111 0.409825 0.431070
P_8 0.503549 0.527329 0.564326 0.771041 0.832052 0.996754 1.077619 1.286534
P_8 1.265889 1.305550 1.346906 1.418267 1.427005 1.415679 1.513883 1.481663
P_8 1.357846 1.245966 1.329490 1.169232 1.155279 1.025938 1.217067 1.098193
P_8 1.183618 1.053814 1.133751 1.108369 1.195586 1.231116 1.285605 1.244162
P_8 1.373111 1.134066 1.244726 1.267789 1.167226 0.975657 0.956336 0.786414
P_8 0.705028 0.552152 0.558895 0.502071 0.437856 0.382637 0.428473 0.433960
P_8 0.549288 0.613994 0.637040 0.749269 0.954531 1.009446 1.053208 1.162909
P_8 1.228044 1.257348 1.324654 1.403086 1.342508 1.314009 1.495798 1.392906
P_8 1.279729 1.262922 1.304756 1.132875 1.203514 1.114424 1.073789 1.249582
P_8 1.097128 1.074087 1.154708 1.133592 1.151389 1.246639 1.320896 1.199641
P_8 1.318827 1.093413 1.251374 1.214646 1.156523 1.094636 0.979291 0.884483
P_8 0.764435 0.646220 0.571114 0.516789 0.452136 0.424825 0.453200 0.513793
P_8 0.532278 0.656611 0.742413 0.908939 0.910746 1.183531 1.351484 1.307724
P_8 1.433185 1.450604 1.578993 1.511236 1.615672 1.535270 1.552341 1.534034
P_8 1.528101 1.469550 1.299936 1.238616 1.416231 1.315174 1.229466 1.190832
P_8 1.386265 1.256113 1.370249 1.320770 1.443636 1.446409 1.452671 1.439637
P_8 1.406264 1.302040 1.385553 1.228774 1.193388 1.188729 1.048805 1.039277
P_8 0.915857 0.769189 0.631585 0.547839 0.507861 0.459150 0.506827 0.496218
P_8 0.631811 0.693807 0.801013 0.966058 1.105126 1.227139 1.472584 1.446591
P_8 1.716821 1.667302 1.739280 1.646717 1.813518 1.612896 1.604531 1.491593
P_8 1.394081 1.508012 1.447746 1.419693 1.362633 1.231590 1.306656 1.225748
P_8 1.156205 1.186702 1.193979 1.266573 1.279154 1.194224 1.263434 1.266761
P_8 1.145600 1.178259 1.069195 1.118574 1.039986 0.941672 0.868804 0.825187
P_8 0.734810 0.657764 0.621482 0.530917 0.532190 0.453552 0.426590 0.409744
P_8 0.440805 0.487368 0.552568 0.663407 0.696215 0.685831 0.710385 0.895525
P_8 1.003838 1.110444 1.137182 1.078277 1.151456 1.140249 1.210648 1.202105
P_8 1.099466 1.214673 1.157504 1.101092 1.037060 1.059089 1.111071 1.186732
P_8 1.109248 1.172992 1.032414 0.998198 1.030963 1.113171 1.031359 0.965778
P_8 0.933641 0.996675 0.943624 0.849695 0.754656 0.727484 0.706272 0.639845
P_8 0.567058 0.620700 0.504363 0.520441 0.442909 0.397460 0.388127 0.378770
P_8 0.420167 0.411417 0.430424 0.465859 0.475127 0.589348 0.606678 0.686164
P_8 0.767907 0.842747 0.833239 0.938730 0.984676 1.096831 1.019399 0.990912
P_8 1.044318 1.146958 0.926299 1.002176 0.978554 0.984626 0.931447 0.941335
P_8 0.879761 0.953090 0.863590 0.944999 0.902736 0.993492 1.031916 0.923716
P_8 0.993413 0.907510 1.010009 0.928159 0.872937 0.741166 0.699453 0.617874

P_9 0.610182 0.629192 0.516641 0.470574 0.455096 0.419748 0.432027 0.424865
P_9 0.475499 0.541957 0.597693 0.720164 0.752663 0.930281 1.027620 1.037031
P_9 1.149023 1.178935 1.279539 1.167190 1.256667 1.336100 1.230467 1.191126
P_9 1.286909 1.306150 1.185017 1.146961 1.110191 1.077616 0.991974 1.037453
P_9 0.946789 0.980266 1.010851 0.992708 1.000472 1.058146 1.267592 1.143986
P_9 1.195099 1.193269 1.249866 1.163713 1.126330 0.927107 0.940264 0.874109
P_9 0.766165 0.638765 0.630943 0.546040 0.508589 0.526921 0.531542 0.526738
P_9 0.562730 0.646177 0.734313 0.813959 0.968108 1.087936 1.064407 1.088730
P_9 1.205327 1.341285 1.413677 1.386212 1.324684 1.167384 1.358901 1.341417
P_9 1.249240 1.276098 1.237179 1.240884 1.108277 1.063670 1.016946 1.133605
P_9 0.965340 1.217402 1.056047 1.200003 1.167804 1.216863 1.126960 1.235535
P_9 1.303449 1.213195 1.337572 1.236429 1.009241 1.020912 0.959880 0.816385
P_9 0.748986 0.582871 0.627967 0.554578 0.515631 0.506170 0.477463 0.533080
P_9 0.580860 0.676164 0.726483 0.772098 0.976444 0.964529 0.940408 1.184098
P_9 1.130150 1.169353 1.424405 1.283979 1.364568 1.352927 1.366668 1.452406
P_9 1.308777 1.222643 1.048700 1.124181 1.215048 1.133737 1.045608 1.014892
P_9 1.082840 1.174199 1.142612 1.100040 1.160359 1.176710 1.281842 1.235630
P_9 1.221763 1.173093 1.080183 1.064394 1.130631 1.084009 0.899792 0.846148
P_9 0.856864 0.733814 0.615938 0.571368 0.604245 0.557433 0.535617 0.568748
P_9 0.636113 0.701069 0.800351 0.930046 0.951858 1.118570 1.173064 1.323132
P_9 1.215498 1.410473 1.393093 1.613401 1.528436 1.400025 1.356182 1.504809
P_9 1.321686 1.302522 1.367321 1.316235 1.356754 1.202627 1.296391 1.254543
P_9 1.234130 1.187029 1.429993 1.280055 1.248694 1.376686 1.590589 1.498524
P_9 1.469366 1.401801 1.317964 1.305330 1.236431 1.097987 1.112059 0.941963
P_9 0.938770 0.800313 0.743104 0.638532 0.624148 0.585536 0.586789 0.638116
P_9 0.665220 0.750616 0.836111 1.046258 1.107919 1.133623 1.400994 1.424798
P_9 1.502209 1.569012 1.621397 1.737219 1.640644 1.630795 1.638161 1.480025
P_9 1.536422 1.483197 1.286256 1.306334 1.160430 1.103644 1.189695 1.231410
P_9 1.135616 1.215909 1.274323 1.311571 1.163312 1.160638 1.129028 1.247837
P_9 1.152991 1.153805 1.103098 1.042039 1.007967 0.905625 0.836891 0.957744
P_9 0.777916 0.681708 0.657410 0.608969 0.570601 0.505537 0.523648 0.504869
P_9 0.538885 0.523498 0.603735 0.622886 0.710132 0.799042 0.879303 0.862532
P_9 0.968886 1.105270 1.127196 1.124308 1.111385 1.134576 1.212158 1.114903
P_9 1.031745 1.265673 1.089044 1.159052 1.055166 1.082791 1.027508 1.084530
P_9 0.998916 1.089813 1.001301 1.043715 1.016451 1.077031 0.991843 0.956019
P_9 0.969216 0.951098 0.897448 0.863650 0.836390 0.715840 0.746671 0.705299
P_9 0.606414 0.675434 0.567954 0.558579 0.508149 0.517968 0.516311 0.504383
P_9 0.514714 0.471799 0.496040 0.556945 0.530301 0.641242 0.731020 0.753246
P_9 0.795595 0.772491 1.005466 0.944324 0.995838 1.040052 1.016107 1.097737
P_9 1.047021 0.931434 0.938431 0.922338 0.959234 0.938209 0.894915 0.819150
P_9 0.927189 0.944436 0.934886 0.919089 0.949691 0.991487 1.013634 1.056807
P_9 1.040184 1.017458 1.035983 0.911690 0.946008 0.752085 0.765252 0.758770

P_6 0.544400 0.492550 0.415542 0.329768 0.325681 0.289613 0.279251 0.327354
P_6 0.373182 0.421690 0.582879 0.677238 0.768532 0.886798 0.906864 1.083223
P_6 1.213812 1.173548 1.368734 1.488947 1.440171 1.449269 1.398410 1.369708
P_6 1.182186 1.319457 1.149283 1.129884 1.118291 1.036519 0.958355 0.955773
P_6 0.908021 1.079187 1.035075 0.972171 1.171378 1.232170 1.135627 1.293938
P_6 1.264991 1.170552 1.171870 1.264088 1.101920 1.025739 0.928377 0.829471
P_6 0.672235 0.565834 0.487914 0.449562 0.357939 0.373861 0.343642 0.401307
P_6 0.486623 0.573649 0.646687 0.720196 0.846477 1.035779 1.055373 1.225169
P_6 1.390579 1.391014 1.398561 1.531155 1.498534 1.498670 1.435583 1.517997
P_6 1.311378 1.378569 1.217571 1.292572 1.097650 1.176817 1.080290 1.085281
P_6 0.996524 1.061277 1.127148 1.230877 1.247295 1.238843 1.146754 1.258920
P_6 1.200418 1.449592 1.278292 1.239269 1.142046 1.070226 0.895508 0.737426
P_6 0.636669 0.548453 0.452078 0.426577 0.376495 0.324042 0.361320 0.421351
P_6 0.486903 0.545410 0.675833 0.714246 0.901015 0.989434 1.133913 1.190857
P_6 1.259370 1.301895 1.390624 1.436283 1.383615 1.523527 1.476048 1.297522
P_6 1.287879 1.316819 1.264888 1.237972 1.288319 1.154947 1.079432 1.207272
P_6 1.095409 1.262561 1.121118 1.278682 1.132296 1.263544 1.282216 1.259734
P_6 1.261097 1.288017 1.261545 1.256376 1.109444 0.974648 0.973723 0.841510
P_6 0.675970 0.619469 0.523706 0.488828 0.438082 0.371606 0.381934 0.443550
P_6 0.493159 0.598545 0.700380 0.853521 0.957577 1.134254 1.306650 1.408148
P_6 1.360993 1.521664 1.619234 1.537338 1.758709 1.473517 1.404336 1.644179
P_6 1.518057 1.433146 1.249377 1.234406 1.294962 1.229611 1.279787 1.128218
P_6 1.239197 1.337675 1.329284 1.365388 1.373646 1.392407 1.462336 1.339244
P_6 1.471650 1.325290 1.459273 1.339092 1.320091 1.204307 0.916111 0.939308
P_6 0.742761 0.677654 0.548855 0.512368 0.431424 0.392742 0.389987 0.444949
P_6 0.548889 0.698489 0.843404 0.881829 1.129062 1.283575 1.413808 1.387035
P_6 1.633510 1.635611 1.868200 1.811194 1.735229 1.701150 1.658174 1.670034
P_6 1.528758 1.473137 1.297802 1.321513 1.231459 1.229343 1.167215 1.119078
P_6 1.230179 1.158597 1.254453 1.265091 1.221506 1.353021 1.182585 1.189563
P_6 1.092466 1.231515 1.215094 1.077205 1.073443 0.934302 0.818512 0.778035
P_6 0.748632 0.640162 0.544760 0.485593 0.424055 0.395718 0.374617 0.374120
P_6 0.420493 0.391361 0.510887 0.532718 0.652717 0.761485 0.923215 0.939667
P_6 0.973462 1.143820 1.156317 1.097978 1.272300 1.342524 1.246865 1.283745
P_6 1.209833 1.118728 1.166128 1.073330 1.023129 1.022843 1.071357 1.116809
P_6 1.104404 1.041236 1.143053 1.021778 1.160924 1.109088 0.980363 1.078429
P_6 0.981176 1.010257 0.886267 0.897256 0.775773 0.686009 0.657459 0.614825
P_6 0.587041 0.539540 0.497579 0.419033 0.397369 0.350721 0.375935 0.336532
P_6 0.380301 0.364157 0.424961 0.484303 0.502719 0.578295 0.662719 0.693924
P_6 0.808541 0.843216 0.982695 0.961747 1.096762 1.060704 1.121940 1.085462
P_6 1.015370 1.056929 0.950191 0.971460 1.049328 0.897513 0.864986 0.918014
P_6 0.909640 0.814413 0.950610 0.863433 0.960917 0.980016 1.032335 1.021421
P_6 0.981233 0.936710 0.970238 0.951330 0.887843 0.778703 0.698385 0.635226

P_7 0.615585 0.562142 0.527431 0.446503 0.401555 0.437162 0.366792 0.434349
P_7 0.435459 0.477369 0.536521 0.637597 0.775313 0.906200 0.927916 1.045179
P_7 1.124877 1.277691 1.298503 1.340501 1.417290 1.401997 1.220979 1.308033
P_7 1.299200 1.187601 1.170994 1.145387 1.042898 1.064480 0.912499 0.999696
P_7 0.948381 1.001331 1.032323 0.961607 1.058485 1.150600 1.136739 1.063988
P_7 1.209965 1.207203 1.196538 1.121871 1.110947 1.019108 0.949676 0.796690
P_7 0.730573 0.640611 0.632048 0.529416 0.506233 0.459510 0.467032 0.515558
P_7 0.552505 0.539121 0.698914 0.741644 0.840966 0.989064 1.074513 1.122848
P_7 1.357238 1.274769 1.400519 1.408347 1.409838 1.409277 1.340444 1.265236
P_7 1.391603 1.254425 1.227703 1.218976 1.223939 1.232179 1.132753 1.152761
P_7 1.058223 1.023031 1.197267 1.161904 1.227561 1.357583 1.279764 1.213933
P_7 1.353825 1.196007 1.268658 1.187107 1.069705 1.081025 1.009544 0.843680
P_7 0.792866 0.725435 0.628246 0.510478 0.482019 0.441815 0.475178 0.527581
P_7 0.534986 0.645820 0.736201 0.740345 0.806987 0.924979 1.008133 1.108512
P_7 1.202931 1.319922 1.315229 1.276282 1.383742 1.403103 1.352809 1.219522
P_7 1.348238 1.237896 1.248746 1.243764 1.203628 1.173079 1.211095 1.149662
P_7 1.108020 1.134637 1.091485 1.232464 1.156439 1.198823 1.251984 1.204064
P_7 1.231531 1.232867 1.211688 1.191852 1.113597 1.082338 1.023064 0.877680
P_7 0.772214 0.725196 0.616338 0.607010 0.535938 0.475746 0.527569 0.577492
P_7 0.617420 0.725011 0.715251 0.887863 1.073132 1.053408 1.117560 1.299983
P_7 1.213896 1.572261 1.488732 1.397916 1.435930 1.452284 1.583089 1.418052
P_7 1.413112 1.444448 1.296644 1.325018 1.259396 1.096707 1.240292 1.255186
P_7 1.290233 1.360796 1.253200 1.267559 1.268038 1.312592 1.348018 1.279791
P_7 1.415705 1.327707 1.390167 1.309687 1.158712 1.193179 1.113203 0.886756
P_7 0.896034 0.820743 0.693682 0.593771 0.576269 0.506216 0.508337 0.587214
P_7 0.663779 0.766330 0.871884 1.012727 1.087468 1.314194 1.334654 1.386253
P_7 1.515848 1.648797 1.638454 1.704006 1.681517 1.581358 1.527797 1.574536
P_7 1.559459 1.567599 1.445712 1.424193 1.336643 1.253681 1.146057 1.210193
P_7 1.212823 1.325140 1.144417 1.225403 1.164024 1.160534 1.215498 1.279602
P_7 1.081944 1.193829 1.133680 1.102544 1.005072 0.942925 0.872707 0.858476
P_7 0.758652 0.724368 0.716241 0.593002 0.580970 0.532546 0.474348 0.468954
P_7 0.539360 0.534557 0.526012 0.677243 0.705644 0.763331 0.784688 0.880686
P_7 1.028244 1.040697 1.102047 1.241134 1.222870 1.190024 1.193223 1.200200
P_7 1.172724 1.156995 1.073479 1.112457 1.091876 1.037283 1.132271 1.050999
P_7 1.139524 1.064279 1.061827 1.092081 1.069198 1.077327 1.018019 0.943200
P_7 0.844523 0.904679 0.923898 0.888347 0.772587 0.739459 0.726363 0.637903
P_7 0.638763 0.582392 0.503066 0.539665 0.476046 0.424764 0.428078 0.416505
P_7 0.434052 0.446101 0.451447 0.472796 0.543091 0.606826 0.640739 0.687261
P_7 0.762371 0.805051 0.947250 0.889926 0.941527 0.984221 0.927938 1.087944
P_7 0.978065 1.098133 1.049800 1.005445 0.977659 0.907037 0.891634 0.934552
P_7 0.940978 0.863915 0.922445 0.901079 0.932287 0.990969 0.916085 0.924024
P_7 0.947203 0.966006 0.938165 0.881216 0.857117 0.832004 0.803057 0.682858

P_4 0.579777 0.552310 0.507549 0.407407 0.408689 0.373120 0.385206 0.396231
P_4 0.426695 0.522443 0.651253 0.712887 0.781157 0.852808 0.924520 1.112360
P_4 1.133966 1.222508 1.330376 1.355960 1.368685 1.238734 1.414510 1.401392
P_4 1.250693 1.228617 0.997928 1.033218 1.004081 0.969945 1.010761 0.950023
P_4 0.879591 0.973198 1.050302 1.031949 1.100554 1.119345 1.101260 1.130034
P_4 1.227057 1.317245 1.279735 1.183264 1.185713 0.968045 0.882516 0.821536
P_4 0.722744 0.635214 0.569941 0.493088 0.464429 0.414663 0.410895 0.481852
P_4 0.556969 0.582857 0.653306 0.700918 0.941551 1.006694 1.186958 1.109139
P_4 1.269641 1.336164 1.401248 1.267789 1.575024 1.465032 1.570634 1.367087
P_4 1.239441 1.363520 1.298816 1.161163 1.073592 1.081584 1.088447 1.046053
P_4 1.166715 1.173098 1.141017 1.170918 1.142876 1.255873 1.296253 1.282508
P_4 1.248965 1.326092 1.170565 1.121329 1.133347 1.041241 0.972801 0.817240
P_4 0.700089 0.644784 0.543590 0.513123 0.465034 0.388225 0.459370 0.499880
P_4 0.528742 0.567503 0.701788 0.796641 0.940414 1.063763 1.102864 1.225139
P_4 1.375044 1.246793 1.391047 1.533045 1.489828 1.370763 1.381816 1.190977
P_4 1.377264 1.388038 1.359165 1.184102 1.205500 1.119010 1.066676 1.173765
P_4 1.045985 1.082176 1.022046 1.110019 1.186210 1.241581 1.158677 1.303105
P_4 1.329827 1.271681 1.067462 1.135517 1.018806 0.970024 0.994357 0.883085
P_4 0.765775 0.713696 0.587637 0.503234 0.486531 0.484976 0.439942 0.506094
P_4 0.569911 0.623120 0.792258 0.952149 1.033895 0.956732 1.294023 1.324719
P_4 1.384698 1.447760 1.510982 1.587437 1.482481 1.608214 1.662034 1.469479
P_4 1.426870 1.414287 1.314198 1.265214 1.226092 1.247272 1.250194 1.258963
P_4 1.249953 1.132918 1.253017 1.392126 1.343752 1.338163 1.342069 1.500737
P_4 1.449650 1.294397 1.441696 1.316883 1.243627 1.189482 1.076175 1.010018
P_4 0.858078 0.751968 0.625341 0.571958 0.565125 0.484368 0.487627 0.521699
P_4 0.603598 0.728326 0.813872 0.952523 1.138768 1.303427 1.283376 1.597703
P_4 1.652893 1.836233 1.723949 1.638652 1.893546 1.666572 1.672946 1.631471
P_4 1.563501 1.479460 1.260718 1.264479 1.236555 1.196819 1.169989 1.108423
P_4 1.288292 1.213426 1.181357 1.086944 1.186942 1.177315 1.174929 1.177244
P_4 1.227721 1.163339 1.171152 0.982121 1.082192 0.985297 0.949717 0.838112
P_4 0.729820 0.743449 0.577439 0.523424 0.517930 0.475363 0.432113 0.481426
P_4 0.462707 0.514914 0.621565 0.630218 0.627384 0.753424 0.859199 0.982771
P_4 0.898713 1.023629 1.105305 1.116333 1.239844 1.189555 1.127673 1.176245
P_4 1.117252 1.135549 1.075801 1.024996 1.073020 1.023604 0.980362 1.060795
P_4 1.019792 0.975840 0.979306 0.985256 0.950042 0.939280 0.971034 1.072979
P_4 0.973775 0.924836 0.925817 0.811807 0.875582 0.815917 0.618350 0.640833
P_4 0.574777 0.612033 0.505843 0.471175 0.439108 0.420524 0.421507 0.421067
P_4 0.425101 0.414661 0.447630 0.489877 0.518049 0.610672 0.651532 0.675382
P_4 0.811253 0.861540 0.881533 0.908897 0.975124 1.053796 1.140483 1.166787
P_4 1.007998 0.935945 1.065138 0.919354 1.068738 0.942436 0.923561 0.883715
P_4 0.897275 0.891437 0.922731 0.903854 0.967675 0.892944 0.935447 0.958741
P_4 0.894891 0.967464 0.940929 0.880665 0.896625 0.821659 0.744871 0.661129

P_5 0.528525 0.437701 0.417876 0.361934 0.314495 0.304017 0.317214 0.359357
P_5 0.420755 0.476652 0.535072 0.653445 0.769055 0.914188 0.950705 1.080139
P_5 1.200292 1.178782 1.394645 1.447706 1.515188 1.430783 1.430828 1.337420
P_5 1.350061 1.363674 1.273968 1.160789 1.104361 1.082278 0.959929 0.934288
P_5 1.023290 1.056010 0.985577 1.047975 1.026913 1.214620 1.204679 1.146321
P_5 1.241104 1.156748 1.078189 1.121747 1.050840 0.950162 0.831307 0.770964
P_5 0.704503 0.578276 0.456410 0.469174 0.380688 0.350488 0.320867 0.419848
P_5 0.410066 0.509260 0.660444 0.769784 0.845395 1.060857 1.052328 1.230912
P_5 1.363239 1.413584 1.501947 1.595053 1.636134 1.514568 1.537764 1.502982
P_5 1.278358 1.367986 1.244804 1.200404 1.231162 1.169781 1.045365 1.012470
P_5 1.124435 0.971870 1.177173 1.193077 1.264117 1.287488 1.230670 1.234211
P_5 1.237584 1.396382 1.200511 1.217423 1.100519 0.957485 0.882892 0.756417
P_5 0.687959 0.543624 0.519570 0.410315 0.347304 0.326451 0.355383 0.411921
P_5 0.464088 0.521752 0.601658 0.744061 0.829171 1.002050 1.041692 1.142069
P_5 1.349747 1.369650 1.334913 1.534532 1.447321 1.495115 1.515904 1.384841
P_5 1.311121 1.356109 1.198476 1.386693 1.349160 1.125023 1.151004 1.159562
P_5 1.224443 1.176009 1.072312 1.125488 1.113172 1.318464 1.110581 1.258049
P_5 1.209419 1.205421 1.156790 1.095636 1.063844 0.900231 1.017193 0.813143
P_5 0.721470 0.570596 0.521326 0.468726 0.400481 0.394391 0.333679 0.386756
P_5 0.506341 0.559869 0.668115 0.846209 1.026200 1.073104 1.187491 1.295525
P_5 1.493457 1.515963 1.509952 1.579249 1.602514 1.700413 1.609890 1.721340
P_5 1.341125 1.431787 1.552221 1.294429 1.165729 1.280059 1.270658 1.245002
P_5 1.188283 1.285908 1.243324 1.466374 1.533516 1.456641 1.416695 1.325256
P_5 1.503501 1.333935 1.397895 1.254434 1.158880 1.036724 0.964341 0.878424
P_5 0.778976 0.717531 0.583665 0.500266 0.471717 0.433662 0.447583 0.508932
P_5 0.561486 0.739353 0.805444 0.963471 1.163003 1.375045 1.446741 1.528279
P_5 1.813387 1.659839 1.797569 1.746721 2.035959 1.813370 1.767961 1.595718
P_5 1.462901 1.506025 1.430934 1.377441 1.398375 1.414611 1.205665 1.183126
P_5 1.171566 1.285029 1.216495 1.192717 1.186320 1.198216 1.153465 1.170610
P_5 1.244886 1.167760 1.094782 1.162783 0.948317 0.908333 0.874035 0.727450
P_5 0.703571 0.674334 0.563118 0.510101 0.481469 0.351487 0.382488 0.393513
P_5 0.393664 0.437140 0.521991 0.548281 0.609721 0.759722 0.794394 0.853066
P_5 1.017653 1.170328 1.243479 1.191826 1.145462 1.255785 1.313211 1.269751
P_5 1.253162 1.124011 1.100644 1.049879 1.118177 1.004251 1.107951 1.076388
P_5 1.117533 1.051503 1.055338 1.017791 1.098300 1.134523 0.979872 0.995978
P_5 0.967542 0.868619 0.866015 0.830757 0.708351 0.702529 0.681317 0.610016
P_5 0.578379 0.463791 0.470265 0.507521 0.439350 0.389708 0.381038 0.345182
P_5 0.383785 0.364497 0.375708 0.390561 0.495743 0.563323 0.612297 0.687008
P_5 0.706507 0.819209 0.911377 0.941924 1.074471 1.084653 1.135400 1.028643
P_5 1.130953 1.050061 1.038880 1.043918 0.965265 0.921842 0.968240 0.918743
P_5 0.887835 0.864782 0.927453 0.874878 1.007425 0.962568 0.900160 0.957312
P_5 0.987114 0.943353 0.911434 0.840644 0.906131 0.813916 0.596018 0.598162

P_2 0.621706 0.524410 0.495226 0.447353 0.361330 0.365590 0.364055 0.388517
P_2 0.435856 0.517142 0.604938 0.676656 0.734645 0.888009 0.963052 1.077208
P_2 1.193151 1.422761 1.325355 1.372106 1.297846 1.490102 1.321219 1.427046
P_2 1.283532 1.125417 1.221871 1.068459 0.996154 0.946639 1.098667 0.987366
P_2 1.015504 0.985315 1.063297 1.064407 1.130569 1.106810 1.083294 1.085852
P_2 1.300308 1.222868 1.259237 1.126357 1.113876 1.044193 0.905664 0.735797
P_2 0.706542 0.672194 0.625392 0.522707 0.485406 0.442003 0.413063 0.434605
P_2 0.504594 0.578578 0.652649 0.759529 0.900645 1.044607 1.109460 1.249468
P_2 1.450646 1.315743 1.322234 1.469025 1.515120 1.468698 1.483362 1.432841
P_2 1.359473 1.354731 1.312142 1.239212 1.169206 1.162830 1.112041 1.069679
P_2 1.038117 1.050331 1.145463 1.205531 1.160339 1.236509 1.333391 1.287774
P_2 1.231563 1.229060 1.245543 1.131749 1.093249 1.130840 0.934963 0.776730
P_2 0.686402 0.622695 0.571630 0.491839 0.438709 0.379207 0.433311 0.486779
P_2 0.512635 0.586599 0.734395 0.720115 0.816158 0.985752 1.088780 1.208383
P_2 1.260052 1.316501 1.383421 1.427674 1.348235 1.442905 1.449433 1.323418
P_2 1.206351 1.294105 1.289810 1.304020 1.153625 1.144708 1.136084 1.091173
P_2 1.108403 1.111187 1.050269 1.156991 1.225799 1.158872 1.114217 1.249620
P_2 1.218564 1.136070 1.235103 1.343495 1.066309 0.956578 0.880449 0.842167
P_2 0.768608 0.638533 0.588240 0.500347 0.435020 0.412651 0.466580 0.466550
P_2 0.589931 0.680683 0.792834 0.837690 0.919027 1.093101 1.238213 1.356204
P_2 1.417815 1.571769 1.533633 1.543934 1.554354 1.374465 1.523924 1.499079
P_2 1.347663 1.490272 1.405307 1.197221 1.277647 1.176872 1.281806 1.321574
P_2 1.236056 1.314476 1.385585 1.480164 1.289781 1.436306 1.541259 1.435546
P_2 1.357077 1.486533 1.353887 1.316337 1.177818 1.201419 1.171779 0.960252
P_2 0.910134 0.679196 0.677167 0.524144 0.531596 0.460675 0.530841 0.588808
P_2 0.651798 0.794101 0.902932 0.948247 1.162437 1.352788 1.403658 1.590542
P_2 1.640569 1.664267 1.769021 1.696414 1.632585 1.884640 1.638601 1.660799
P_2 1.394583 1.437484 1.393292 1.320204 1.354882 1.159144 1.250345 1.224357
P_2 1.126852 1.227657 1.228624 1.383894 1.355857 1.199844 1.198229 1.281490
P_2 1.342815 1.192784 1.197486 1.116742 1.035589 1.014754 0.900059 0.883473
P_2 0.828957 0.681374 0.569509 0.556004 0.468221 0.415624 0.457569 0.435742
P_2 0.439760 0.435030 0.515750 0.601754 0.698391 0.667712 0.811808 0.840950
P_2 1.030580 1.087471 1.144473 1.115469 1.103936 1.164703 1.119404 1.174840
P_2 1.151574 1.109188 1.054975 1.147194 1.060518 1.027818 1.053563 1.049972
P_2 1.044506 0.947231 1.035533 1.053094 1.025160 1.001357 0.944678 0.981488
P_2 1.032589 0.893156 0.804989 0.859599 0.768905 0.770917 0.708419 0.657432
P_2 0.598731 0.539592 0.449068 0.470430 0.508726 0.410791 0.420608 0.411190
P_2 0.398624 0.434559 0.447031 0.516419 0.551589 0.609064 0.611499 0.646169
P_2 0.715887 0.833383 0.910425 0.935694 0.932612 0.975535 1.033093 1.049286
P_2 1.082537 0.948641 0.934100 1.062923 1.000810 0.897133 0.977509 0.847820
P_2 0.905152 0.899773 0.874587 0.876525 1.070607 0.959932 0.978702 1.020103
P_2 0.948227 0.986294 0.925554 0.873452 0.814441 0.838950 0.688615 0.691512

P_3 0.568986 0.502418 0.507174 0.387096 0.413135 0.394896 0.364962 0.391854
P_3 0.442324 0.510062 0.610017 0.655517 0.725406 0.797889 0.904802 1.044671
P_3 1.124862 1.287329 1.229881 1.351945 1.366680 1.291499 1.311137 1.423346
P_3 1.309984 1.249404 1.141824 1.108193 1.094765 0.945561 0.972620 0.966353
P_3 1.030811 0.981593 1.024107 1.101359 1.098163 1.160056 1.167724 1.140708
P_3 1.145621 1.039864 1.105750 1.069894 1.146559 0.925385 0.945451 0.847461
P_3 0.758559 0.664000 0.566051 0.566488 0.479957 0.417735 0.431798 0.466708
P_3 0.552887 0.597955 0.664311 0.798589 0.838380 0.980967 1.089500 1.111378
P_3 1.283466 1.344425 1.410497 1.397857 1.373671 1.386678 1.328997 1.450594
P_3 1.438382 1.221706 1.220639 1.176653 1.092174 1.183435 1.147663 1.136161
P_3 1.135201 1.166283 1.135585 1.045508 1.141719 1.123656 1.248320 1.265042
P_3 1.257862 1.209460 1.228238 1.174468 1.101069 0.994107 0.886410 0.770975
P_3 0.795216 0.566531 0.560901 0.487068 0.443384 0.476156 0.449589 0.521730
P_3 0.562501 0.595263 0.681832 0.750582 0.866234 0.882098 1.074559 1.134031
P_3 1.187610 1.224195 1.334178 1.297003 1.363044 1.337176 1.491062 1.417032
P_3 1.458301 1.251609 1.254692 1.236850 1.195866 1.200521 1.176908 1.120356
P_3 1.055322 1.198310 1.185879 1.160737 1.111632 1.216884 1.305970 1.394780
P_3 1.346958 1.283940 1.183117 1.146113 1.104416 1.031315 0.940288 0.833453
P_3 0.751476 0.697741 0.566097 0.522243 0.507346 0.491469 0.479900 0.489132
P_3 0.567308 0.653760 0.706360 0.802840 0.928566 1.182667 1.189587 1.224552
P_3 1.492137 1.341747 1.632068 1.516440 1.393987 1.464963 1.532219 1.507130
P_3 1.601064 1.556020 1.427716 1.262977 1.301354 1.307644 1.304010 1.279263
P_3 1.265396 1.297169 1.398758 1.304678 1.256999 1.409820 1.491537 1.333096
P_3 1.443636 1.355930 1.436649 1.316455 1.166434 1.143081 1.093354 0.953635
P_3 0.851863 0.843227 0.690845 0.602585 0.535256 0.543150 0.522030 0.538935
P_3 0.665830 0.754160 0.926919 0.991852 1.112768 1.363666 1.422571 1.503757
P_3 1.628230 1.709197 1.758484 1.661990 1.594249 1.783440 1.490410 1.574263
P_3 1.528172 1.492436 1.394026 1.376071 1.390893 1.420369 1.210581 1.186577
P_3 1.310303 1.266597 1.139812 1.220167 1.198214 1.173623 1.162342 1.272581
P_3 1.212468 1.219825 1.099562 1.111577 0.927966 0.920075 0.928567 0.828817
P_3 0.786624 0.710638 0.581349 0.520189 0.486885 0.493488 0.466269 0.465922
P_3 0.496345 0.518513 0.541060 0.566619 0.620992 0.709830 0.835484 0.865477
P_3 0.970342 1.121081 1.127874 1.255141 1.068156 1.143491 1.237172 1.291252
P_3 1.161812 1.161949 1.052249 1.143311 1.080889 1.148235 1.051100 1.024910
P_3 0.995842 1.076187 1.099353 0.941909 1.054266 1.070220 1.017874 0.946825
P_3 0.878898 0.952524 0.920851 0.799135 0.755623 0.702221 0.695074 0.705491
P_3 0.574669 0.539459 0.552016 0.537579 0.434130 0.414061 0.451896 0.432721
P_3 0.393716 0.428614 0.449410 0.426739 0.501452 0.548118 0.597132 0.645746
P_3 0.655107 0.797610 0.890752 0.922592 1.007459 1.126260 0.949722 1.049071
P_3 1.036193 1.156110 1.069053 0.997910 1.068886 0.909880 0.897412 0.935603
P_3 0.945745 0.867213 0.903824 0.940850 0.933488 0.997358 0.988346 0.929046
P_3 0.978296 0.943278 0.891412 0.863778 0.806225 0.810085 0.687399 0.643100

[ENERGY]
GLOBAL PRICE   0.0000
GLOBAL PATTERN ""
GLOBAL EFFIC   75.0000
DEMAND CHARGE  0.0000

[STATUS]
;ID        Setting   

[CONTROLS]

[RULES]

[DEMANDS]
;ID        Demand     Pattern   

[QUALITY]

[REACTIONS]
 ORDER BULK 1
 ORDER WALL 1
 ORDER TANK 1
 GLOBAL BULK 0.0000    
 GLOBAL WALL 0.0000    
 LIMITING POTENTIAL 0.0000    
 ROUGHNESS CORRELATION 0.0000    

[SOURCES]
;Node      Type       Quality    Pattern   

[MIXING]
;Tank ID             Model Fraction

[OPTIONS]
UNITS                CMH                 
HEADLOSS             H-W                 
QUALITY              NONE mg/L
VISCOSITY            1
DIFFUSIVITY          1
SPECIFIC GRAVITY     1
TRIALS               40
ACCURACY             1e-06
CHECKFREQ            2
UNBALANCED           CONTINUE 10
PATTERN              1                   
DEMAND MULTIPLIER    1
EMITTER EXPONENT     0.5
TOLERANCE            0.01

[TIMES]
DURATION             168:00:00
HYDRAULIC TIMESTEP   00:30:00
PATTERN TIMESTEP     00:30:00
PATTERN START        00:00:00
REPORT TIMESTEP      00:30:00
REPORT START         00:00:00
START CLOCKTIME      00:00:00 AM
QUALITY TIMESTEP     00:00:00
STATISTIC            NONE      

[REPORT]
SUMMARY    NO

[COORDINATES]
;Node      X-Coord    Y-Coord   
24         3977.800000 7172.900000
25         3954.440000 7990.650000
26         4410.050000 7990.650000
27         4818.930000 7990.650000
20         4550.230000 5969.630000
21         4550.230000 5303.740000
22         4550.230000 4591.120000
23         3977.800000 5969.630000
28         3405.370000 5969.630000
29         2716.120000 6004.670000
1          5251.170000 4485.980000
3          5227.800000 5969.630000
2          5251.170000 5268.690000
5          6676.400000 5969.630000
4          6068.930000 5969.630000
7          7260.510000 6600.470000
6          7260.510000 5969.630000
9          7260.510000 7990.650000
8          7260.510000 7301.400000
11         6793.220000 8551.400000
10         6793.220000 7990.650000
13         6150.700000 8960.280000
12         6793.220000 8960.280000
15         5683.410000 7990.650000
14         6302.570000 7990.650000
17         5216.120000 7535.050000
16         5216.120000 7990.650000
19         5227.800000 6542.060000
18         5227.800000 7137.850000
31         2716.120000 7990.650000
30         2716.120000 6904.210000
32         3405.370000 7990.650000

[VERTICES]
;Link      X-Coord    Y-Coord   

[LABELS]

[BACKDROP]
DIMENSIONS 0.00 0.00 10000.00 10000.00
UNITS None
OFFSET 0.00 0.00

[TAGS]
;type      name       tag       

[END]
